lattice_vector 10.963536 0.0 0.0
lattice_vector 0.0 5.035055 0.0
lattice_vector -2.939464 0.0 4.11906
atom 8.05141 5.78504 0.78084 O
atom 7.07507 5.11042 0.07037 C
atom 6.81237 5.55916 -0.87906 H
atom 6.70321 4.02393 0.79708 C
atom 5.95947 2.75084 1.17341 C
atom 6.13732 1.88919 0.51708 H
atom 4.87755 2.86198 1.32161 H
atom 6.81343 2.74973 2.51043 C
atom 7.48170 1.88654 2.62587 H
atom 6.22361 2.86310 3.42918 H
atom 7.46965 4.02220 1.99465 C
atom 8.28670 5.10770 1.96337 C
atom 9.03966 5.55336 2.60075 H
atom -0.02734 5.78504 3.33822 O
atom 0.94900 5.11042 4.04869 C
atom 1.21170 5.55916 4.99812 H
atom 1.32087 4.02393 3.32198 C
atom 2.06461 2.75084 2.94565 C
atom 1.88675 1.88919 3.60198 H
atom 3.14652 2.86198 2.79745 H
atom 1.21064 2.74973 1.60863 C
atom 0.54237 1.88654 1.49319 H
atom 1.80046 2.86310 0.68988 H
atom 0.55442 4.02220 2.12441 C
atom -0.26263 5.10770 2.15569 C
atom -1.01559 5.55336 1.51831 H
