title geometry
lattice_vector 10.963536 0.000000 0.000000
lattice_vector 0.000000 5.035055 0.000000
lattice_vector -2.939464 0.000000 4.119060
144.295933 -2.357029 -153.361232 7.203034 4.237782 1.321492 /home/trose/genarris_mpi4py/merged_4_17_2019/tests/full_diverse_workflow/harris_single_molecule_prep_aims_dir/geometry
35.699142 -177.642660 26.633861 0.821040 4.237782 2.797559 /home/trose/genarris_mpi4py/merged_4_17_2019/tests/full_diverse_workflow/harris_single_molecule_prep_aims_dir/geometry
