title geometry
lattice_vector 8.516859 0.000000 0.000000
lattice_vector 0.000000 13.924541 0.000000
lattice_vector -3.249958 0.000000 2.896205
0.000000 0.000000 0.000000 -0.865833 5.710866 0.983332 /home/trose/genarris_mpi4py/merged_4_17_2019/tests/full_diverse_workflow/harris_single_molecule_prep_aims_dir/geometry
87.756270 -179.750443 88.229316 6.132736 12.673137 1.912865 /home/trose/genarris_mpi4py/merged_4_17_2019/tests/full_diverse_workflow/harris_single_molecule_prep_aims_dir/geometry
