lattice_vector 12.916627 0.0 0.0
lattice_vector 0.0 5.345504 0.0
lattice_vector 1.830741 0.0 3.364654
atom 3.27869 1.19561 2.76198 O
atom 4.40866 1.81454 3.26517 C
atom 4.31553 2.88352 3.40804 H
atom 5.36172 0.86307 3.44741 C
atom 6.70121 0.24417 3.81926 C
atom 6.96912 0.30298 4.88209 H
atom 7.55878 0.57962 3.22185 H
atom 6.08572 -1.14717 3.36956 C
atom 6.00096 -1.89096 4.17243 H
atom 6.58708 -1.61221 2.51094 H
atom 4.80954 -0.38407 3.04574 C
atom 3.53571 -0.15685 2.63028 C
atom 2.71127 -0.74077 2.24151 H
atom 11.46868 1.19561 0.60267 O
atom 10.33871 1.81454 0.09948 C
atom 10.43183 2.88352 -0.04338 H
atom 9.38564 0.86307 -0.08276 C
atom 8.04616 0.24417 -0.45461 C
atom 7.77824 0.30298 -1.51743 H
atom 7.18859 0.57962 0.14280 H
atom 8.66164 -1.14717 -0.00490 C
atom 8.74641 -1.89096 -0.80777 H
atom 8.16029 -1.61221 0.85372 H
atom 9.93783 -0.38407 0.31891 C
atom 11.21165 -0.15685 0.73437 C
atom 12.03610 -0.74077 1.12314 H
