title geometry
lattice_vector 8.178855 0.000000 0.000000
lattice_vector 0.000000 7.588448 0.000000
lattice_vector -0.381341 0.000000 3.136558
-33.273228 -136.942000 60.317985 5.408532 6.930570 2.095533 /home/trose/genarris_mpi4py/merged_4_17_2019/tests/full_diverse_workflow/harris_single_molecule_prep_aims_dir/geometry
-146.726513 -43.058579 -119.682300 2.388984 3.136346 1.041015 /home/trose/genarris_mpi4py/merged_4_17_2019/tests/full_diverse_workflow/harris_single_molecule_prep_aims_dir/geometry
