lattice_vector 12.783147 0.0 0.0
lattice_vector 0.0 7.285126 0.0
lattice_vector -1.467419 0.0 2.556887
atom 8.45257 0.72719 1.68859 O
atom 7.64986 1.60415 0.98168 C
atom 7.11342 1.16108 0.15239 H
atom 7.76532 2.83166 1.55328 C
atom 7.54338 4.31892 1.78638 C
atom 6.52122 4.60514 2.06585 H
atom 7.88486 4.97979 0.97922 H
atom 8.54976 4.19016 3.00603 C
atom 8.10841 4.40429 3.98804 H
atom 9.47269 4.77483 2.90029 H
atom 8.66612 2.71585 2.64724 C
atom 9.07376 1.42101 2.71098 C
atom 9.73049 0.82498 3.33168 H
atom 2.86316 0.72719 0.86830 O
atom 3.66586 1.60415 1.57521 C
atom 4.20230 1.16108 2.40450 H
atom 3.55041 2.83166 1.00361 C
atom 3.77235 4.31892 0.77050 C
atom 4.79451 4.60514 0.49104 H
atom 3.43087 4.97979 1.57766 H
atom 2.76597 4.19016 -0.44914 C
atom 3.20732 4.40429 -1.43116 H
atom 1.84304 4.77483 -0.34340 H
atom 2.64961 2.71585 -0.09036 C
atom 2.24197 1.42101 -0.15409 C
atom 1.58523 0.82498 -0.77480 H
