lattice_vector 6.069877 0.0 0.0
lattice_vector 0.0 15.503429 0.0
lattice_vector 3.926205 0.0 2.607831
atom 6.22132 13.93296 0.33907 O
atom 5.35538 13.09446 -0.33929 C
atom 5.02883 13.46247 -1.30352 H
atom 5.14870 11.99375 0.43049 C
atom 4.60175 10.64012 0.85950 C
atom 4.90499 9.78960 0.23540 H
atom 3.51535 10.59563 1.00990 H
atom 5.44692 10.81688 2.19042 C
atom 6.23564 10.06713 2.33460 H
atom 4.84711 10.87709 3.10773 H
atom 5.90735 12.15158 1.62261 C
atom 6.55469 13.34397 1.54509 C
atom 7.23358 13.92035 2.16049 H
atom 6.22132 1.57047 0.33907 O
atom 5.35538 2.40897 -0.33929 C
atom 5.02883 2.04096 -1.30352 H
atom 5.14870 3.50968 0.43049 C
atom 4.60175 4.86331 0.85950 C
atom 4.90499 5.71383 0.23540 H
atom 3.51535 4.90780 1.00990 H
atom 5.44692 4.68655 2.19042 C
atom 6.23564 5.43630 2.33460 H
atom 4.84711 4.62634 3.10773 H
atom 5.90735 3.35185 1.62261 C
atom 6.55469 2.15946 1.54509 C
atom 7.23358 1.58308 2.16049 H
