title geometry
lattice_vector 3.463190 0.000000 0.000000
lattice_vector 0.000000 13.467320 0.000000
lattice_vector 1.691569 0.000000 6.527143
44.122009 -107.950631 -77.235309 2.560409 4.488282 2.130409 /home/trose/genarris_mpi4py/merged_4_17_2019/tests/full_diverse_workflow/harris_single_molecule_prep_aims_dir/geometry
135.877622 -72.049263 102.764505 2.594351 11.221942 4.396725 /home/trose/genarris_mpi4py/merged_4_17_2019/tests/full_diverse_workflow/harris_single_molecule_prep_aims_dir/geometry
