lattice_vector 9.727765 0.0 0.0
lattice_vector 0.0 9.301458 0.0
lattice_vector -3.406198 0.0 3.227582
atom 3.34486 5.43139 1.47911 O
atom 4.57271 5.43254 2.11591 C
atom 4.60262 4.87932 3.04588 H
atom 5.43604 6.16097 1.36033 C
atom 6.73206 6.83186 0.92933 C
atom 7.56251 6.15114 0.70173 H
atom 7.09903 7.62288 1.59603 H
atom 5.93865 7.35348 -0.34161 C
atom 6.31305 6.97534 -1.30174 H
atom 5.84600 8.44533 -0.40577 H
atom 4.72528 6.62718 0.22056 C
atom 3.44913 6.16941 0.31421 C
atom 2.53787 6.23381 -0.26654 H
atom 1.64176 3.87007 3.09290 O
atom 2.86961 3.86892 3.72970 C
atom 2.89952 4.42214 4.65967 H
atom 3.73294 3.14049 2.97412 C
atom 5.02896 2.46959 2.54312 C
atom 5.85941 3.15032 2.31552 H
atom 5.39594 1.67858 3.20982 H
atom 4.23555 1.94798 1.27218 C
atom 4.60995 2.32612 0.31205 H
atom 4.14290 0.85613 1.20802 H
atom 3.02218 2.67428 1.83435 C
atom 1.74603 3.13205 1.92800 C
atom 0.83477 3.06764 1.34725 H
