lattice_vector 6.630966 0.0 0.0
lattice_vector 0.0 15.59558 0.0
lattice_vector -2.137553 0.0 2.6943
atom 6.10723 5.93042 -0.49963 O
atom 5.26885 5.05435 -1.16501 C
atom 4.95854 5.38156 -2.14910 H
atom 5.06106 3.97970 -0.35953 C
atom 4.52438 2.63456 0.10750 C
atom 4.85373 1.76638 -0.47784 H
atom 3.43566 2.57901 0.23583 H
atom 5.33707 2.87313 1.44897 C
atom 6.13318 2.14137 1.63798 H
atom 4.71619 2.95789 2.35017 H
atom 5.79063 4.19291 0.84209 C
atom 6.42218 5.39141 0.73440 C
atom 7.07879 6.00038 1.34254 H
atom 6.10723 9.66516 -0.49963 O
atom 5.26885 10.54123 -1.16501 C
atom 4.95854 10.21402 -2.14910 H
atom 5.06106 11.61588 -0.35953 C
atom 4.52438 12.96102 0.10750 C
atom 4.85373 13.82920 -0.47784 H
atom 3.43566 13.01657 0.23583 H
atom 5.33707 12.72245 1.44897 C
atom 6.13318 13.45422 1.63798 H
atom 4.71619 12.63769 2.35017 H
atom 5.79063 11.40267 0.84209 C
atom 6.42218 10.20417 0.73440 C
atom 7.07879 9.59520 1.34254 H
