lattice_vector 13.332967 0.0 0.0
lattice_vector 0.0 4.677988 0.0
lattice_vector -1.069426 0.0 2.656208
atom 11.63044 3.25982 1.55946 O
atom 11.23737 4.38311 0.85459 C
atom 11.85068 5.25991 1.01850 H
atom 10.14170 4.05519 0.12055 C
atom 8.97331 4.21597 -0.84097 C
atom 9.24548 4.43647 -1.88123 H
atom 8.19469 4.92199 -0.52450 H
atom 8.63970 2.69161 -0.55473 C
atom 8.71735 2.03397 -1.43022 H
atom 7.66975 2.51947 -0.07059 H
atom 9.84367 2.68860 0.37601 C
atom 10.76636 2.22288 1.25840 C
atom 10.98458 1.28877 1.76005 H
atom 0.63310 3.25982 1.09675 O
atom 1.02617 4.38311 1.80161 C
atom 0.41286 5.25991 1.63771 H
atom 2.12184 4.05519 2.53566 C
atom 3.29024 4.21597 3.49718 C
atom 3.01806 4.43647 4.53744 H
atom 4.06885 4.92199 3.18071 H
atom 3.62384 2.69161 3.21094 C
atom 3.54619 2.03397 4.08643 H
atom 4.59379 2.51947 2.72680 H
atom 2.41987 2.68860 2.28019 C
atom 1.49718 2.22288 1.39781 C
atom 1.27896 1.28877 0.89616 H
