lattice_vector 6.262229999999999 0.0 0.0
lattice_vector 3.989874166362694e-16 6.515958999999999 0.0
lattice_vector 3.989874166362694e-16 3.989874166362694e-16 6.515958999999999
atom 4.83484 3.61994 4.60894 C
atom 4.83484 4.60894 3.61994 C
atom 4.83484 4.24699 2.26897 C
atom 4.83484 2.89602 1.90702 C
atom 4.83484 1.90702 2.89601 C
atom 4.83484 2.26897 4.24699 C
atom 4.83484 3.90250 5.66314 H
atom 4.83484 5.66314 3.90250 H
atom 4.83484 5.01873 1.49723 H
atom 4.83484 2.61346 0.85282 H
atom 4.83484 0.85282 2.61346 H
atom 4.83484 1.49723 5.01873 H
atom 1.42739 4.60894 2.89602 C
atom 1.42739 3.61994 1.90702 C
atom 1.42739 2.26897 2.26897 C
atom 1.42739 1.90702 3.61994 C
atom 1.42739 2.89601 4.60894 C
atom 1.42739 4.24699 4.24699 C
atom 1.42739 5.66314 2.61346 H
atom 1.42739 3.90250 0.85282 H
atom 1.42739 1.49723 1.49723 H
atom 1.42739 0.85282 3.90250 H
atom 1.42739 2.61346 5.66314 H
atom 1.42739 5.01873 5.01873 H
