lattice_vector 11.981628 0.0 0.0
lattice_vector 0.0 4.581853 0.0
lattice_vector 0.22767 0.0 4.201046
atom 1.67988 1.64269 5.53522 O
atom 1.19938 2.82383 4.99936 C
atom 0.22109 3.11962 5.35607 H
atom 2.13341 3.30310 4.13638 C
atom 2.79254 4.22686 3.12260 C
atom 3.03630 5.23231 3.48933 H
atom 2.27239 4.32049 2.16055 H
atom 4.01177 3.21178 3.11914 C
atom 4.95860 3.63261 3.48165 H
atom 4.19242 2.71824 2.15549 H
atom 3.22670 2.39407 4.13445 C
atom 2.92759 1.38689 4.99642 C
atom 3.39848 0.47877 5.35055 H
atom 10.52942 1.64269 -1.33418 O
atom 11.00991 2.82383 -0.79831 C
atom 11.98821 3.11962 -1.15502 H
atom 10.07589 3.30310 0.06467 C
atom 9.41676 4.22686 1.07844 C
atom 9.17300 5.23231 0.71172 H
atom 9.93690 4.32049 2.04050 H
atom 8.19753 3.21178 1.08190 C
atom 7.25070 3.63261 0.71940 H
atom 8.01688 2.71824 2.04555 H
atom 8.98260 2.39407 0.06659 C
atom 9.28170 1.38689 -0.79537 C
atom 8.81082 0.47877 -1.14950 H
