lattice_vector 11.052878 0.0 0.0
lattice_vector 0.0 5.095793 0.0
lattice_vector -2.878222 0.0 5.0628
atom 9.20433 4.76484 -0.00909 O
atom 8.13677 5.26447 0.71465 C
atom 7.94050 6.31854 0.56560 H
atom 7.61001 4.24488 1.44253 C
atom 6.68952 3.51462 2.40946 C
atom 5.63667 3.45552 2.10476 H
atom 6.73477 3.85397 3.45236 H
atom 7.54038 2.21175 2.10046 C
atom 6.97763 1.40101 1.61984 H
atom 8.07834 1.80189 2.96502 H
atom 8.37171 3.07694 1.16441 C
atom 9.34081 3.41828 0.27492 C
atom 10.15319 2.92432 -0.24264 H
atom -1.02967 2.21695 5.07189 O
atom 0.03789 2.71657 4.34815 C
atom 0.23415 3.77064 4.49720 H
atom 0.56465 1.69699 3.62027 C
atom 1.48513 0.96672 2.65335 C
atom 2.53799 0.90762 2.95804 H
atom 1.43989 1.30608 1.61044 H
atom 0.63427 -0.33614 2.96234 C
atom 1.19703 -1.14689 3.44296 H
atom 0.09632 -0.74600 2.09778 H
atom -0.19705 0.52904 3.89839 C
atom -1.16615 0.87038 4.78788 C
atom -1.97853 0.37642 5.30544 H
