lattice_vector 7.425305 0.0 0.0
lattice_vector 0.0 10.319577 0.0
lattice_vector 4.601901 0.0 3.161724
atom 3.52112 3.04143 -0.45416 O
atom 4.12088 3.05246 0.79214 C
atom 4.78244 2.21770 0.98529 H
atom 3.69163 4.15900 1.45408 C
atom 3.54220 5.17809 2.57419 C
atom 4.45367 5.73275 2.83188 H
atom 3.08772 4.80027 3.49916 H
atom 2.54446 5.95589 1.61688 C
atom 2.87963 6.95951 1.32463 H
atom 1.51408 6.02381 1.98908 H
atom 2.79859 4.85680 0.59549 C
atom 2.70927 4.15549 -0.56513 C
atom 2.18780 4.24604 -1.50942 H
atom 8.50609 8.20122 3.61589 O
atom 7.90633 8.21225 2.36958 C
atom 7.24477 7.37748 2.17643 H
atom 8.33558 9.31879 1.70765 C
atom 8.48500 10.33788 0.58754 C
atom 7.57353 10.89254 0.32985 H
atom 8.93949 9.96006 -0.33743 H
atom 9.48275 11.11568 1.54484 C
atom 9.14757 12.11930 1.83709 H
atom 10.51313 11.18360 1.17264 H
atom 9.22862 10.01659 2.56624 C
atom 9.31793 9.31528 3.72686 C
atom 9.83941 9.40582 4.67115 H
