lattice_vector 4.787325 0.0 0.0
lattice_vector 0.0 14.54233 0.0
lattice_vector 0.476435 0.0 3.566493
atom 3.05283 5.20934 2.43249 O
atom 3.49505 3.94712 2.07982 C
atom 4.37585 3.93373 1.45070 H
atom 2.66147 3.03688 2.64854 C
atom 2.07663 1.68317 3.02400 C
atom 2.72267 1.04488 3.64048 H
atom 1.68955 1.08727 2.18739 H
atom 0.97102 2.48199 3.83420 C
atom 0.97827 2.30249 4.91713 H
atom -0.05314 2.34852 3.46253 H
atom 1.67150 3.75284 3.37585 C
atom 1.93023 5.07893 3.22954 C
atom 1.49929 6.01369 3.56472 H
atom 3.05283 9.33299 2.43249 O
atom 3.49505 10.59520 2.07982 C
atom 4.37585 10.60860 1.45070 H
atom 2.66147 11.50545 2.64854 C
atom 2.07663 12.85915 3.02400 C
atom 2.72267 13.49745 3.64048 H
atom 1.68955 13.45506 2.18739 H
atom 0.97102 12.06034 3.83420 C
atom 0.97827 12.23984 4.91713 H
atom -0.05314 12.19381 3.46253 H
atom 1.67150 10.78949 3.37585 C
atom 1.93023 9.46340 3.22954 C
atom 1.49929 8.52864 3.56472 H
