lattice_vector 10.573296 0.0 0.0
lattice_vector 0.0 5.931712 0.0
lattice_vector -0.558243 0.0 2.82822
atom 1.85342 3.95344 2.07518 O
atom 0.97965 3.09076 1.43844 C
atom 0.27481 3.56929 0.77061 H
atom 1.26487 1.82699 1.84878 C
atom 1.16651 0.31299 1.96564 C
atom 1.38763 -0.24628 1.04741 H
atom 0.22953 -0.06810 2.39191 H
atom 2.37287 0.40009 2.99230 C
atom 3.28840 -0.11074 2.66698 H
atom 2.13011 0.07173 4.01116 H
atom 2.34701 1.90500 2.76776 C
atom 2.69027 3.21413 2.89105 C
atom 3.41964 3.79537 3.44061 H
atom 8.16163 3.95344 0.75304 O
atom 9.03540 3.09076 1.38978 C
atom 9.74024 3.56929 2.05761 H
atom 8.75018 1.82699 0.97944 C
atom 8.84854 0.31299 0.86258 C
atom 8.62743 -0.24628 1.78081 H
atom 9.78552 -0.06810 0.43631 H
atom 7.64219 0.40009 -0.16408 C
atom 6.72665 -0.11074 0.16124 H
atom 7.88494 0.07173 -1.18294 H
atom 7.66805 1.90500 0.06046 C
atom 7.32478 3.21413 -0.06283 C
atom 6.59542 3.79537 -0.61239 H
