lattice_vector 4.151752 0.0 0.0
lattice_vector 0.0 17.852194 0.0
lattice_vector 4.442347 0.0 2.988349
atom 3.88224 16.33778 2.39726 O
atom 5.09049 15.86589 1.91710 C
atom 5.78456 16.63385 1.60041 H
atom 5.06564 14.50864 1.98108 C
atom 5.53809 13.06898 1.84066 C
atom 6.40023 12.79285 2.46138 H
atom 5.72247 12.73035 0.81294 H
atom 4.13151 12.64000 2.43598 C
atom 4.18296 12.11474 3.39850 H
atom 3.50405 12.05639 1.75003 H
atom 3.80557 14.12432 2.51601 C
atom 3.09865 15.25845 2.76275 C
atom 2.12342 15.51659 3.15529 H
atom 3.88224 1.51442 2.39726 O
atom 5.09049 1.98631 1.91710 C
atom 5.78456 1.21835 1.60041 H
atom 5.06564 3.34356 1.98108 C
atom 5.53809 4.78321 1.84066 C
atom 6.40023 5.05934 2.46138 H
atom 5.72247 5.12185 0.81294 H
atom 4.13151 5.21219 2.43598 C
atom 4.18296 5.73746 3.39850 H
atom 3.50405 5.79581 1.75003 H
atom 3.80557 3.72788 2.51601 C
atom 3.09865 2.59375 2.76275 C
atom 2.12342 2.33560 3.15529 H
