lattice_vector 6.476387 0.0 0.0
lattice_vector 0.0 12.87289 0.0
lattice_vector -0.50029 0.0 2.701402
atom 3.41473 7.38456 1.04961 O
atom 2.26450 8.12177 1.26549 C
atom 1.40017 7.53965 1.55852 H
atom 2.55619 9.42960 1.03895 C
atom 2.35112 10.93251 0.91754 C
atom 2.09898 11.45109 1.85153 H
atom 1.64785 11.25193 0.13764 H
atom 3.88056 11.02104 0.50538 C
atom 4.50946 11.59239 1.20040 H
atom 4.05848 11.38892 -0.51337 H
atom 3.92729 9.50902 0.67100 C
atom 4.43188 8.24724 0.68393 C
atom 5.38443 7.77100 0.48984 H
atom 3.41473 5.48833 1.04961 O
atom 2.26450 4.75112 1.26549 C
atom 1.40017 5.33325 1.55852 H
atom 2.55619 3.44329 1.03895 C
atom 2.35112 1.94038 0.91754 C
atom 2.09898 1.42180 1.85153 H
atom 1.64785 1.62096 0.13764 H
atom 3.88056 1.85185 0.50538 C
atom 4.50946 1.28050 1.20040 H
atom 4.05848 1.48397 -0.51337 H
atom 3.92729 3.36387 0.67100 C
atom 4.43188 4.62565 0.68393 C
atom 5.38443 5.10189 0.48984 H
