title geometry
lattice_vector 6.476387 0.000000 0.000000
lattice_vector 0.000000 12.872890 0.000000
lattice_vector -0.500290 0.000000 2.701402
-157.004652 -130.510472 28.320609 3.262486 9.215765 0.877716 /home/trose/genarris_mpi4py/merged_4_17_2019/tests/full_diverse_workflow/harris_single_molecule_prep_aims_dir/geometry
156.810921 -81.426811 -151.231453 3.262486 3.657122 0.877716 /home/trose/genarris_mpi4py/merged_4_17_2019/tests/full_diverse_workflow/harris_single_molecule_prep_aims_dir/geometry
