lattice_vector 2.848028 0.0 0.0
lattice_vector 0.0 11.738575 0.0
lattice_vector -5.2042 0.0 5.567943
atom -5.21937 2.63805 6.98065 O
atom -4.47040 1.66128 6.34971 C
atom -4.30427 0.76666 6.93609 H
atom -4.13866 2.12015 5.11430 C
atom -3.52482 2.14118 3.72207 C
atom -3.92110 1.39570 3.02060 H
atom -2.42821 2.10675 3.68865 H
atom -4.14603 3.59237 3.56387 C
atom -4.89854 3.68396 2.76993 H
atom -3.40698 4.39475 3.44208 H
atom -4.69669 3.42015 4.97204 C
atom -5.35257 3.71621 6.12487 C
atom -5.92605 4.54400 6.52200 H
atom -5.21937 9.10053 6.98065 O
atom -4.47040 10.07729 6.34971 C
atom -4.30427 10.97192 6.93609 H
atom -4.13866 9.61843 5.11430 C
atom -3.52482 9.59740 3.72207 C
atom -3.92110 10.34287 3.02060 H
atom -2.42821 9.63182 3.68865 H
atom -4.14603 8.14620 3.56387 C
atom -4.89854 8.05462 2.76993 H
atom -3.40698 7.34382 3.44208 H
atom -4.69669 8.31843 4.97204 C
atom -5.35257 8.02236 6.12487 C
atom -5.92605 7.19458 6.52200 H
