title geometry
lattice_vector 2.848028 0.000000 0.000000
lattice_vector 0.000000 11.738575 0.000000
lattice_vector -5.204200 0.000000 5.567943
-97.271562 -101.823668 -92.470826 -4.514309 2.754431 5.279061 /home/trose/genarris_mpi4py/merged_4_17_2019/tests/full_diverse_workflow/harris_single_molecule_prep_aims_dir/geometry
48.192577 -121.039310 -49.588281 -4.514309 8.984141 5.279061 /home/trose/genarris_mpi4py/merged_4_17_2019/tests/full_diverse_workflow/harris_single_molecule_prep_aims_dir/geometry
