title geometry
lattice_vector 5.101940 0.000000 0.000000
lattice_vector 0.000000 6.532677 0.000000
lattice_vector -5.624040 0.000000 8.390417
19.640490 -10.829460 -23.331722 -0.507363 6.914181 1.489521 /home/trose/genarris_mpi4py/merged_4_17_2019/tests/full_diverse_workflow/harris_single_molecule_prep_aims_dir/geometry
160.359033 -169.170898 156.667829 -0.014735 3.647843 6.900887 /home/trose/genarris_mpi4py/merged_4_17_2019/tests/full_diverse_workflow/harris_single_molecule_prep_aims_dir/geometry
