title geometry
lattice_vector 32.618107 0.000000 0.000000
lattice_vector 0.000000 3.245638 0.000000
lattice_vector 4.600149 0.000000 2.887587
-31.831199 -17.959442 166.440095 25.472328 2.504891 0.359966 /home/trose/genarris_mpi4py/merged_4_17_2019/tests/full_diverse_workflow/harris_single_molecule_prep_aims_dir/geometry
-148.169770 -162.040544 -13.560873 11.745930 2.504891 2.527612 /home/trose/genarris_mpi4py/merged_4_17_2019/tests/full_diverse_workflow/harris_single_molecule_prep_aims_dir/geometry
