lattice_vector 16.635633 0.0 0.0
lattice_vector 0.0 3.319556 0.0
lattice_vector -3.515606 0.0 2.911185
atom 9.28194 1.73305 -0.14084 O
atom 8.97845 1.51133 1.19027 C
atom 7.98540 1.12002 1.37068 H
atom 10.06196 1.86286 1.93139 C
atom 10.93114 2.09653 3.15836 C
atom 11.19814 1.19562 3.72572 H
atom 10.56407 2.85714 3.85949 H
atom 12.05414 2.60477 2.15963 C
atom 12.96911 1.99831 2.15293 H
atom 12.33222 3.65936 2.28348 H
atom 11.06890 2.31695 1.03612 C
atom 10.57013 2.22905 -0.22498 C
atom 10.91189 2.43907 -1.23041 H
atom 3.83809 0.07327 3.05202 O
atom 4.14158 -0.14845 1.72092 C
atom 5.13462 -0.53975 1.54050 H
atom 3.05807 0.20308 0.97979 C
atom 2.18888 0.43675 -0.24717 C
atom 1.92189 -0.46416 -0.81453 H
atom 2.55596 1.19736 -0.94831 H
atom 1.06588 0.94499 0.75156 C
atom 0.15092 0.33853 0.75826 H
atom 0.78781 1.99959 0.62770 H
atom 2.05113 0.65717 1.87506 C
atom 2.54990 0.56927 3.13616 C
atom 2.20814 0.77930 4.14160 H
