lattice_vector 3.512525 0.0 0.0
lattice_vector 0.0 16.292229 0.0
lattice_vector -0.304284 0.0 4.735507
atom 0.71067 14.44494 2.96617 O
atom -0.24149 13.81600 2.18455 C
atom -0.57643 14.38781 1.32861 H
atom -0.50055 12.60121 2.73593 C
atom -1.13085 11.22880 2.92234 C
atom -0.91684 10.49995 2.12999 H
atom -2.21090 11.22758 3.11821 H
atom -0.22399 11.08313 4.21589 C
atom 0.51104 10.26911 4.17014 H
atom -0.78167 11.00077 5.15772 H
atom 0.31332 12.47013 3.89440 C
atom 1.04510 13.60883 4.01575 C
atom 1.78872 14.00620 4.69467 H
atom 0.71067 1.84729 2.96617 O
atom -0.24149 2.47623 2.18455 C
atom -0.57643 1.90442 1.32861 H
atom -0.50055 3.69102 2.73593 C
atom -1.13085 5.06343 2.92234 C
atom -0.91684 5.79228 2.12999 H
atom -2.21090 5.06465 3.11821 H
atom -0.22399 5.20910 4.21589 C
atom 0.51104 6.02312 4.17014 H
atom -0.78167 5.29145 5.15772 H
atom 0.31332 3.82210 3.89440 C
atom 1.04510 2.68340 4.01575 C
atom 1.78872 2.28603 4.69467 H
