title geometry
lattice_vector 5.313021 0.000000 0.000000
lattice_vector 0.000000 14.437103 0.000000
lattice_vector -1.044260 0.000000 2.729976
175.422312 -66.407757 -153.866625 1.424679 10.701337 0.449621 /home/trose/genarris_mpi4py/merged_4_17_2019/tests/full_diverse_workflow/harris_single_molecule_prep_aims_dir/geometry
-173.380461 -115.450384 31.050231 0.902549 3.735763 1.814609 /home/trose/genarris_mpi4py/merged_4_17_2019/tests/full_diverse_workflow/harris_single_molecule_prep_aims_dir/geometry
