title geometry
lattice_vector 3.665223 0.000000 0.000000
lattice_vector 0.000000 13.722412 0.000000
lattice_vector 1.156372 0.000000 4.995606
0.000000 0.000000 0.000000 2.383605 7.497523 3.428456 /home/trose/genarris_mpi4py/merged_4_17_2019/tests/full_diverse_workflow/harris_single_molecule_prep_aims_dir/geometry
-55.966837 -175.905224 -53.564904 2.437991 0.636317 1.567141 /home/trose/genarris_mpi4py/merged_4_17_2019/tests/full_diverse_workflow/harris_single_molecule_prep_aims_dir/geometry
