lattice_vector 3.08642 0.0 0.0
lattice_vector 0.0 17.093605 0.0
lattice_vector 6.227871 0.0 5.363229
atom 3.35495 7.37870 0.06057 O
atom 2.77493 6.32788 -0.62679 C
atom 2.62879 6.50284 -1.68501 H
atom 2.54111 5.32510 0.26011 C
atom 2.08637 3.97402 0.79240 C
atom 2.62580 3.10465 0.39485 H
atom 1.00826 3.77870 0.72625 H
atom 2.58340 4.46458 2.21691 C
atom 3.40758 3.87677 2.64140 H
atom 1.79092 4.55465 2.97104 H
atom 2.98794 5.76427 1.53648 C
atom 3.48132 7.02212 1.39077 C
atom 3.92753 7.77829 2.02396 H
atom 3.35495 9.71490 0.06057 O
atom 2.77493 10.76573 -0.62679 C
atom 2.62879 10.59076 -1.68501 H
atom 2.54111 11.76850 0.26011 C
atom 2.08637 13.11958 0.79240 C
atom 2.62580 13.98896 0.39485 H
atom 1.00826 13.31490 0.72625 H
atom 2.58340 12.62903 2.21691 C
atom 3.40758 13.21684 2.64140 H
atom 1.79092 12.53895 2.97104 H
atom 2.98794 11.32934 1.53648 C
atom 3.48132 10.07148 1.39077 C
atom 3.92753 9.31532 2.02396 H
