lattice_vector 18.618446 0.0 0.0
lattice_vector 0.0 4.912659 0.0
lattice_vector 3.401988 0.0 3.063337
atom 15.18905 1.24041 -0.45352 O
atom 13.99319 0.59235 -0.70458 C
atom 14.08991 -0.35930 -1.21135 H
atom 12.98686 1.36784 -0.22212 C
atom 11.57201 1.81459 0.11573 C
atom 11.03516 1.17924 0.83193 H
atom 10.91789 2.00341 -0.74528 H
atom 12.22568 3.11486 0.74734 C
atom 12.06376 3.23017 1.82692 H
atom 11.95032 4.05294 0.24832 H
atom 13.57288 2.53244 0.34525 C
atom 14.91959 2.43323 0.19232 C
atom 15.79230 3.02473 0.43794 H
atom 6.83138 1.24041 3.51686 O
atom 8.02725 0.59235 3.76792 C
atom 7.93053 -0.35930 4.27469 H
atom 9.03357 1.36784 3.28546 C
atom 10.44842 1.81459 2.94761 C
atom 10.98527 1.17924 2.23141 H
atom 11.10254 2.00341 3.80862 H
atom 9.79476 3.11486 2.31600 C
atom 9.95668 3.23017 1.23642 H
atom 10.07011 4.05294 2.81502 H
atom 8.44755 2.53244 2.71809 C
atom 7.10085 2.43323 2.87102 C
atom 6.22814 3.02473 2.62540 H
