title geometry
lattice_vector 18.618446 0.000000 0.000000
lattice_vector 0.000000 4.912659 0.000000
lattice_vector 3.401988 0.000000 3.063337
-93.254534 -87.209408 34.364513 13.511880 1.864268 -0.001927 /home/trose/genarris_mpi4py/merged_4_17_2019/tests/full_diverse_workflow/harris_single_molecule_prep_aims_dir/geometry
-86.745497 -92.790611 -145.635220 8.508555 1.864268 3.065255 /home/trose/genarris_mpi4py/merged_4_17_2019/tests/full_diverse_workflow/harris_single_molecule_prep_aims_dir/geometry
