lattice_vector 6.546072 0.0 0.0
lattice_vector 0.0 6.795627 0.0
lattice_vector -4.87441 0.0 6.698385
atom -1.57233 6.04860 2.49795 O
atom -2.08695 5.14614 1.58480 C
atom -2.30625 5.56173 0.60962 H
atom -2.17642 3.93588 2.19644 C
atom -2.47186 2.45493 2.38361 C
atom -1.87511 1.77298 1.76420 H
atom -3.52870 2.16992 2.30151 H
atom -1.94676 2.62628 3.87082 C
atom -1.04887 2.04154 4.10932 H
atom -2.70205 2.44269 4.64585 H
atom -1.70441 4.08921 3.52886 C
atom -1.34074 5.38857 3.69096 C
atom -0.93424 6.00664 4.48126 H
atom -4.00954 0.74703 5.84715 O
atom -4.52415 1.64949 4.93399 C
atom -4.74345 1.23389 3.95881 H
atom -4.61363 2.85975 5.54564 C
atom -4.90907 4.34070 5.73280 C
atom -4.31231 5.02264 5.11340 H
atom -5.96590 4.62571 5.65070 H
atom -4.38397 4.16934 7.22002 C
atom -3.48608 4.75409 7.45851 H
atom -5.13925 4.35293 7.99505 H
atom -4.14162 2.70641 6.87805 C
atom -3.77795 1.40706 7.04015 C
atom -3.37145 0.78899 7.83045 H
