lattice_vector 3.595309 0.0 0.0
lattice_vector 0.0 13.532369 0.0
lattice_vector -5.625633 0.0 4.156699
atom -0.42085 5.55057 1.88016 O
atom -0.17579 4.62737 0.87977 C
atom -0.28220 5.00984 -0.12730 H
atom 0.14467 3.44561 1.46934 C
atom 0.53733 1.98126 1.59978 C
atom 1.52952 1.72233 1.20818 H
atom -0.19289 1.25985 1.21094 H
atom 0.48296 2.19576 3.17074 C
atom 1.44305 2.05830 3.68486 H
atom -0.28077 1.59983 3.68690 H
atom 0.09735 3.63833 2.87726 C
atom -0.25054 4.93209 3.10532 C
atom -0.41901 5.56947 3.96392 H
atom -0.42085 7.98180 1.88016 O
atom -0.17579 8.90500 0.87977 C
atom -0.28220 8.52253 -0.12730 H
atom 0.14467 10.08676 1.46934 C
atom 0.53733 11.55111 1.59978 C
atom 1.52952 11.81004 1.20818 H
atom -0.19289 12.27252 1.21094 H
atom 0.48296 11.33661 3.17074 C
atom 1.44305 11.47406 3.68486 H
atom -0.28077 11.93254 3.68690 H
atom 0.09735 9.89404 2.87726 C
atom -0.25054 8.60028 3.10532 C
atom -0.41901 7.96290 3.96392 H
