lattice_vector 15.497566 0.0 0.0
lattice_vector 0.0 4.25398 0.0
lattice_vector 2.626893 0.0 5.393462
atom 15.42931 1.84426 1.93599 O
atom 14.31972 1.57064 1.15685 C
atom 14.48908 1.62777 0.08921 H
atom 13.28131 1.29402 1.98873 C
atom 11.87204 0.92987 2.43245 C
atom 11.53237 -0.07414 2.14710 H
atom 11.09101 1.65371 2.16616 H
atom 12.40324 1.04842 3.92264 C
atom 12.36768 0.11354 4.49686 H
atom 11.93010 1.84270 4.51433 H
atom 13.75784 1.39884 3.32423 C
atom 15.07307 1.73629 3.26790 C
atom 15.87342 1.93170 3.97008 H
atom 2.69515 1.84426 3.45747 O
atom 3.80474 1.57064 4.23662 C
atom 3.63538 1.62777 5.30425 H
atom 4.84314 1.29402 3.40473 C
atom 6.25241 0.92987 2.96102 C
atom 6.59209 -0.07414 3.24636 H
atom 7.03345 1.65371 3.22731 H
atom 5.72122 1.04842 1.47082 C
atom 5.75678 0.11354 0.89661 H
atom 6.19436 1.84270 0.87913 H
atom 4.36661 1.39884 2.06923 C
atom 3.05139 1.73629 2.12557 C
atom 2.25103 1.93170 1.42338 H
