# 
# This is the geometry file that corresponds to the current relaxation step.
# If you do not want this file to be written, set the "write_restart_geometry" flag to .false.
# 
lattice_vector      7.16693130      0.11783944     -0.23450995
lattice_vector      0.04756418     10.30099235      0.14408467
lattice_vector     -5.37992545      1.09196058     13.29665194
atom      -1.18438890      2.98511530      5.64659141 S
atom       0.62152378      5.07460123      5.03193156 C
atom       1.54473657      2.50015015      4.98705223 C
atom       2.11676334      4.15917068      5.24323231 S
atom       0.20994018      2.03748323      5.11700389 C
atom      -0.66423274      4.62128358      5.21042334 C
atom      -1.75334307      5.52347605      5.10384768 C
atom       0.83254879      6.44128648      4.71916548 C
atom      -2.68072025      6.23589031      5.05886953 N
atom       0.99221933      7.57948505      4.50759616 N
atom       0.15778749      0.67716888      4.82548673 C
atom      -0.98968827     -0.13851663      4.85021626 C
atom      -1.96528802     -0.78309019      4.88762092 N
atom       2.45931072      1.61661438      4.63785104 N
atom       1.77320174      0.11617139      4.44389394 S
atom       6.39693789      6.42714077      1.27254901 S
atom       4.54725460      8.57067209      1.52311937 C
atom       3.58860617      5.99266474      1.66739457 C
atom       3.03992782      7.67609776      1.68921409 S
atom       4.91872534      5.50634963      1.53836176 C
atom       5.82527134      8.09888112      1.37238184 C
atom       6.90094831      9.01862459      1.29426376 C
atom       4.35176730      9.97495279      1.59412923 C
atom       7.81723917      9.74322495      1.24244556 N
atom       4.19992677     11.13031885      1.66267526 N
atom       4.92211207      4.11784539      1.62912298 C
atom       6.08226033      3.31927671      1.62353991 C
atom       7.10251517      2.74596515      1.64452216 N
atom       2.63906465      5.08768994      1.80875018 N
atom       3.27552204      3.54469149      1.81438679 S
atom       3.01920653      8.52505987      7.55987184 S
atom       1.21348163      6.43559307      8.17525873 C
atom       0.28996629      9.00995342      8.21910854 C
atom      -0.28190271      7.35072750      7.96406751 S
atom       1.62468999      9.47273958      8.08891359 C
atom       2.49918250      6.88899743      7.99663536 C
atom       3.58829769      5.98686222      8.10378619 C
atom       1.00244742      5.06890709      8.48804222 C
atom       4.51554257      5.27430794      8.14940850 N
atom       0.84222782      3.93074913      8.69942065 N
atom       1.67662016     10.83319701      8.37980333 C
atom       2.82390240     11.64911690      8.35438796 C
atom       3.79933973     12.29389589      8.31642158 N
atom      -0.62474208      9.89353490      8.56783915 N
atom       0.06115628     11.39411729      8.76125698 S
atom      -4.56227853      5.08391096     11.93515768 S
atom      -2.71247370      2.94066365     11.68267500 C
atom      -1.75402338      5.51892895     11.54060204 C
atom      -1.20491091      3.83562886     11.51964896 S
atom      -3.08428127      6.00503527     11.66912619 C
atom      -3.99056528      3.41228314     11.83316072 C
atom      -5.06627713      2.49237997     11.90945851 C
atom      -2.51703611      1.53645088     11.61021583 C
atom      -5.98269402      1.76783556     11.95991992 N
atom      -2.36530705      0.38114074     11.54050582 N
atom      -3.08794252      7.39350709     11.57790290 C
atom      -4.24827255      8.19181614     11.58297330 C
atom      -5.26871173      8.76478390     11.56160402 N
atom      -0.80462557      6.42402737     11.39917501 N
atom      -1.44137536      7.96693274     11.39282595 S
