lattice_vector 9.151351 0.0 0.0
lattice_vector 0.0 5.101756 0.0
lattice_vector -7.74105 0.0 4.73954
atom 0.29426 1.51865 5.48090 O
atom 0.06083 2.57154 4.61484 C
atom 0.94133 3.13906 4.34201 H
atom -1.26915 2.59867 4.33690 C
atom -2.58612 3.05718 3.72789 C
atom -2.65511 2.97347 2.63561 H
atom -2.92048 4.05955 4.02508 H
atom -3.26977 1.86844 4.52564 C
atom -3.73469 1.10085 3.89345 H
atom -3.99623 2.18611 5.28471 H
atom -1.88156 1.53235 5.05074 C
atom -0.90715 0.88591 5.74320 C
atom -0.83859 0.04036 6.41562 H
atom 4.16478 3.58310 3.11113 O
atom 3.93135 2.53022 2.24507 C
atom 4.81185 1.96270 1.97224 H
atom 2.60137 2.50309 1.96713 C
atom 1.28441 2.04457 1.35812 C
atom 1.21542 2.12829 0.26584 H
atom 0.95005 1.04220 1.65531 H
atom 0.60075 3.23332 2.15587 C
atom 0.13584 4.00090 1.52368 H
atom -0.12571 2.91565 2.91494 H
atom 1.98897 3.56941 2.68097 C
atom 2.96338 4.21584 3.37343 C
atom 3.03194 5.06140 4.04585 H
