title geometry
lattice_vector 8.459632 0.000000 0.000000
lattice_vector 0.000000 6.706206 0.000000
lattice_vector 0.992826 0.000000 4.228424
143.278942 -22.186310 -161.134487 3.450906 0.659445 2.675755 /home/trose/genarris_mpi4py/merged_4_17_2019/tests/full_diverse_workflow/harris_single_molecule_prep_aims_dir/geometry
36.720629 -157.813156 18.864975 6.001553 4.012548 1.552660 /home/trose/genarris_mpi4py/merged_4_17_2019/tests/full_diverse_workflow/harris_single_molecule_prep_aims_dir/geometry
