lattice_vector 3.178233 0.0 0.0
lattice_vector 0.0 15.497209 0.0
lattice_vector -0.282777 0.0 4.991461
atom 2.12292 5.10740 5.24121 O
atom 2.11722 4.75533 3.90362 C
atom 2.19619 5.58662 3.21477 H
atom 2.00946 3.40281 3.82666 C
atom 1.90604 2.01696 3.20679 C
atom 2.78434 1.68883 2.63604 H
atom 1.00722 1.83508 2.60355 H
atom 1.83329 1.45397 4.68823 C
atom 2.66826 0.79968 4.97063 H
atom 0.89112 0.95000 4.93954 H
atom 1.94576 2.89822 5.15442 C
atom 2.01660 3.95775 6.00249 C
atom 2.01162 4.11980 7.07279 H
atom 2.12292 10.38981 5.24121 O
atom 2.11722 10.74188 3.90362 C
atom 2.19619 9.91059 3.21477 H
atom 2.00946 12.09439 3.82666 C
atom 1.90604 13.48025 3.20679 C
atom 2.78434 13.80838 2.63604 H
atom 1.00722 13.66213 2.60355 H
atom 1.83329 14.04324 4.68823 C
atom 2.66826 14.69753 4.97063 H
atom 0.89112 14.54721 4.93954 H
atom 1.94576 12.59899 5.15442 C
atom 2.01660 11.53946 6.00249 C
atom 2.01162 11.37740 7.07279 H
