lattice_vector 5.931227 0.0 0.0
lattice_vector 0.0 6.322138 0.0
lattice_vector 1.741512 0.0 6.866544
atom 2.06687 3.28057 5.00384 O
atom 3.15518 3.92601 4.44518 C
atom 3.36671 3.65443 3.41887 H
atom 3.67671 4.75801 5.38465 C
atom 4.60356 5.78511 6.01832 C
atom 4.58103 6.78425 5.56439 H
atom 5.65012 5.47286 6.12823 H
atom 3.72780 5.63728 7.33289 C
atom 3.20238 6.55155 7.63792 H
atom 4.26925 5.23705 8.19978 H
atom 2.89088 4.62655 6.56229 C
atom 1.91291 3.71821 6.30665 C
atom 1.08322 3.27322 6.84090 H
atom 1.19611 3.04157 1.57057 O
atom 2.28442 2.39613 1.01190 C
atom 2.49596 2.66771 -0.01440 H
atom 2.80595 1.56413 1.95138 C
atom 3.73281 0.53703 2.58505 C
atom 3.71027 -0.46211 2.13112 H
atom 4.77937 0.84927 2.69496 H
atom 2.85704 0.68486 3.89961 C
atom 2.33162 -0.22941 4.20465 H
atom 3.39849 1.08508 4.76650 H
atom 2.02012 1.69559 3.12901 C
atom 1.04215 2.60393 2.87338 C
atom 0.21247 3.04892 3.40763 H
