title geometry
lattice_vector 5.931227 0.000000 0.000000
lattice_vector 0.000000 6.322138 0.000000
lattice_vector 1.741512 0.000000 6.866544
73.777139 -11.115533 87.667073 3.136459 4.519961 5.855860 /home/trose/genarris_mpi4py/merged_4_17_2019/tests/full_diverse_workflow/harris_single_molecule_prep_aims_dir/geometry
37.660093 -44.150021 42.310997 2.265703 1.802173 2.422588 /home/trose/genarris_mpi4py/merged_4_17_2019/tests/full_diverse_workflow/harris_single_molecule_prep_aims_dir/geometry
