lattice_vector 15.97317 0.0 0.0
lattice_vector 0.0 4.877934 0.0
lattice_vector -3.234725 0.0 2.778896
atom 4.39523 2.82016 -1.00790 O
atom 3.28047 2.01740 -1.16909 C
atom 2.55088 2.38997 -1.87668 H
atom 3.42103 0.93694 -0.35687 C
atom 3.09136 -0.38334 0.32409 C
atom 3.03100 -1.25471 -0.34066 H
atom 2.20447 -0.37289 0.97076 H
atom 4.47147 -0.23305 1.09194 C
atom 5.20565 -1.01881 0.87160 H
atom 4.37959 -0.13313 2.18116 H
atom 4.65864 1.07098 0.33015 C
atom 5.23684 2.22930 -0.08317 C
atom 6.14727 2.77871 0.11951 H
atom 8.34321 2.82016 3.78679 O
atom 9.45798 2.01740 3.94798 C
atom 10.18757 2.38997 4.65557 H
atom 9.31741 0.93694 3.13577 C
atom 9.64709 -0.38334 2.45481 C
atom 9.70744 -1.25471 3.11956 H
atom 10.53398 -0.37289 1.80814 H
atom 8.26697 -0.23305 1.68696 C
atom 7.53279 -1.01881 1.90730 H
atom 8.35885 -0.13313 0.59773 H
atom 8.07981 1.07098 2.44875 C
atom 7.50161 2.22930 2.86206 C
atom 6.59117 2.77871 2.65939 H
