lattice_vector 6.439896 0.0 0.0
lattice_vector 0.0 12.570634 0.0
lattice_vector -3.176471 0.0 2.650946
atom -0.21477 5.28037 0.57905 O
atom -1.01009 4.42433 -0.16107 C
atom -1.20055 4.74574 -1.17706 H
atom -1.34390 3.37203 0.63144 C
atom -1.97862 2.05572 1.05569 C
atom -1.62204 1.16611 0.52064 H
atom -3.07614 2.04236 1.06687 H
atom -1.30560 2.28734 2.47354 C
atom -0.56292 1.53023 2.75672 H
atom -2.01564 2.41031 3.30152 H
atom -0.73947 3.57897 1.90167 C
atom -0.05457 4.75147 1.84678 C
atom 0.55604 5.34630 2.51396 H
atom -0.21477 7.29027 0.57905 O
atom -1.01009 8.14630 -0.16107 C
atom -1.20055 7.82490 -1.17706 H
atom -1.34390 9.19860 0.63144 C
atom -1.97862 10.51492 1.05569 C
atom -1.62204 11.40453 0.52064 H
atom -3.07614 10.52827 1.06687 H
atom -1.30560 10.28329 2.47354 C
atom -0.56292 11.04041 2.75672 H
atom -2.01564 10.16033 3.30152 H
atom -0.73947 8.99167 1.90167 C
atom -0.05457 7.81917 1.84678 C
atom 0.55604 7.22433 2.51396 H
