lattice_vector 3.726636 0.0 0.0
lattice_vector 0.0 3.989431 0.0
lattice_vector 14.752257 0.0 12.438369
atom 12.37274 1.68374 8.59157 O
atom 12.51698 2.25103 7.33838 C
atom 13.22884 3.06494 7.28739 H
atom 11.68666 1.59702 6.48416 C
atom 10.98215 1.23104 5.18599 C
atom 11.63162 0.84621 4.38917 H
atom 10.33328 2.00977 4.76477 H
atom 10.22085 0.11293 6.01493 C
atom 10.42966 -0.91604 5.69458 H
atom 9.13325 0.24901 6.07373 H
atom 11.00550 0.59399 7.22684 C
atom 11.44032 0.66548 8.51241 C
atom 11.24967 0.14982 9.44491 H
atom 4.99661 2.30569 2.37239 O
atom 5.14084 1.73840 1.11919 C
atom 5.85272 0.92449 1.06821 H
atom 4.31053 2.39241 0.26498 C
atom 3.60602 2.75839 -1.03319 C
atom 4.25549 3.14322 -1.83002 H
atom 2.95715 1.97966 -1.45441 H
atom 2.84472 3.87650 -0.20425 C
atom 3.05353 4.90547 -0.52460 H
atom 1.75712 3.74042 -0.14545 H
atom 3.62937 3.39544 1.00766 C
atom 4.06419 3.32395 2.29323 C
atom 3.87354 3.83961 3.22573 H
