lattice_vector 3.474666 0.0 0.0
lattice_vector 0.0 14.615945 0.0
lattice_vector 3.60486 0.0 4.843364
atom 6.02278 12.10741 3.29707 O
atom 5.14776 11.21686 2.70178 C
atom 4.89688 11.44502 1.67377 H
atom 4.83484 10.26184 3.61658 C
atom 4.18665 9.02078 4.21254 C
atom 4.47334 8.06910 3.74677 H
atom 3.09289 9.05413 4.29875 H
atom 4.96625 9.36178 5.55151 C
atom 5.70051 8.60581 5.85871 H
atom 4.32147 9.59446 6.40881 H
atom 5.53473 10.56670 4.81610 C
atom 6.25418 11.69878 4.59785 C
atom 6.93085 12.33015 5.15938 H
atom 6.02278 2.50854 3.29707 O
atom 5.14776 3.39909 2.70178 C
atom 4.89688 3.17092 1.67377 H
atom 4.83484 4.35411 3.61658 C
atom 4.18665 5.59516 4.21254 C
atom 4.47334 6.54685 3.74677 H
atom 3.09289 5.56181 4.29875 H
atom 4.96625 5.25416 5.55151 C
atom 5.70051 6.01013 5.85871 H
atom 4.32147 5.02149 6.40881 H
atom 5.53473 4.04924 4.81610 C
atom 6.25418 2.91716 4.59785 C
atom 6.93085 2.28580 5.15938 H
