lattice_vector 5.4792 0.0 0.0
lattice_vector 0.0 7.653542 0.0
lattice_vector -1.704551 0.0 6.443212
atom 1.59097 0.99876 3.13713 O
atom 2.14587 1.05892 4.40267 C
atom 3.21877 0.91889 4.43535 H
atom 1.14225 1.28768 5.28994 C
atom 0.44857 1.52022 6.62421 C
atom 0.72995 2.44315 7.14753 H
atom 0.49814 0.68475 7.33442 H
atom -0.90715 1.61261 5.80543 C
atom -1.40829 2.58782 5.85860 H
atom -1.63787 0.82843 6.04193 H
atom -0.07254 1.37194 4.55590 C
atom 0.22565 1.19217 3.24227 C
atom -0.31135 1.16437 2.30276 H
atom 1.59097 6.65478 3.13713 O
atom 2.14587 6.59462 4.40267 C
atom 3.21877 6.73465 4.43535 H
atom 1.14225 6.36586 5.28994 C
atom 0.44857 6.13332 6.62421 C
atom 0.72995 5.21040 7.14753 H
atom 0.49814 6.96879 7.33442 H
atom -0.90715 6.04093 5.80543 C
atom -1.40829 5.06572 5.85860 H
atom -1.63787 6.82512 6.04193 H
atom -0.07254 6.28160 4.55590 C
atom 0.22565 6.46138 3.24227 C
atom -0.31135 6.48917 2.30276 H
