title geometry
lattice_vector 5.479200 0.000000 0.000000
lattice_vector 0.000000 7.653542 0.000000
lattice_vector -1.704551 0.000000 6.443212
18.381491 -98.483275 129.188228 0.663158 1.288616 4.705950 /home/trose/genarris_mpi4py/merged_4_17_2019/tests/full_diverse_workflow/harris_single_molecule_prep_aims_dir/geometry
31.435727 -103.549797 118.111013 0.663158 6.364922 4.705950 /home/trose/genarris_mpi4py/merged_4_17_2019/tests/full_diverse_workflow/harris_single_molecule_prep_aims_dir/geometry
