lattice_vector 14.737605 0.0 0.0
lattice_vector 0.0 2.987752 0.0
lattice_vector 10.092604 0.0 5.932521
atom 16.71744 1.86705 0.52285 O
atom 15.65557 2.01335 1.39701 C
atom 14.73851 2.36609 0.94273 H
atom 16.08143 1.65651 2.63723 C
atom 16.03695 1.39110 4.13493 C
atom 15.36310 0.58440 4.45115 H
atom 15.85205 2.27047 4.76531 H
atom 17.56202 0.96983 4.01840 C
atom 17.76757 -0.07882 4.26956 H
atom 18.25640 1.60840 4.57957 H
atom 17.44783 1.27757 2.53244 C
atom 17.81547 1.41429 1.23128 C
atom 18.70884 1.26432 0.63866 H
atom 8.11277 1.86705 5.40967 O
atom 9.17464 2.01335 4.53551 C
atom 10.09170 2.36609 4.98980 H
atom 8.74878 1.65651 3.29529 C
atom 8.79326 1.39110 1.79759 C
atom 9.46711 0.58440 1.48138 H
atom 8.97816 2.27047 1.16721 H
atom 7.26819 0.96983 1.91412 C
atom 7.06264 -0.07882 1.66297 H
atom 6.57381 1.60840 1.35295 H
atom 7.38238 1.27757 3.40008 C
atom 7.01474 1.41429 4.70124 C
atom 6.12137 1.26432 5.29387 H
