lattice_vector 4.949204 0.0 0.0
lattice_vector 0.0 14.509794 0.0
lattice_vector 2.519146 0.0 3.978516
atom 4.74830 13.11059 1.70779 O
atom 3.76851 12.26173 1.22554 C
atom 3.07613 12.71659 0.52876 H
atom 3.95939 11.03919 1.78751 C
atom 3.73102 9.56906 2.10700 C
atom 3.85299 8.87843 1.26262 H
atom 2.78678 9.33743 2.61654 H
atom 4.99178 9.67013 3.06469 C
atom 5.83945 9.03626 2.77372 H
atom 4.77340 9.49947 4.12678 H
atom 5.09022 11.12949 2.64466 C
atom 5.55611 12.40451 2.58040 C
atom 6.36237 12.97831 3.01916 H
atom 4.74830 1.39920 1.70779 O
atom 3.76851 2.24807 1.22554 C
atom 3.07613 1.79320 0.52876 H
atom 3.95939 3.47060 1.78751 C
atom 3.73102 4.94074 2.10700 C
atom 3.85299 5.63136 1.26262 H
atom 2.78678 5.17236 2.61654 H
atom 4.99178 4.83966 3.06469 C
atom 5.83945 5.47354 2.77372 H
atom 4.77340 5.01032 4.12678 H
atom 5.09022 3.38031 2.64466 C
atom 5.55611 2.10528 2.58040 C
atom 6.36237 1.53149 3.01916 H
