title geometry
lattice_vector 4.949204 0.000000 0.000000
lattice_vector 0.000000 14.509794 0.000000
lattice_vector 2.519146 0.000000 3.978516
162.743400 -25.027798 -155.740378 4.551367 11.330904 2.154994 /home/trose/genarris_mpi4py/merged_4_17_2019/tests/full_diverse_workflow/harris_single_molecule_prep_aims_dir/geometry
-159.354380 -74.056260 30.470217 4.551367 3.178886 2.154994 /home/trose/genarris_mpi4py/merged_4_17_2019/tests/full_diverse_workflow/harris_single_molecule_prep_aims_dir/geometry
