title geometry
lattice_vector 3.567574 0.000000 0.000000
lattice_vector 0.000000 13.157197 0.000000
lattice_vector 3.515206 0.000000 4.331180
0.000000 0.000000 0.000000 4.320279 3.759878 1.963878 /home/trose/genarris_mpi4py/merged_4_17_2019/tests/full_diverse_workflow/harris_single_molecule_prep_aims_dir/geometry
-145.103219 -45.898404 30.680696 4.320279 9.397315 1.963878 /home/trose/genarris_mpi4py/merged_4_17_2019/tests/full_diverse_workflow/harris_single_molecule_prep_aims_dir/geometry
