lattice_vector 6.047404 0.0 0.0
lattice_vector 4.020245406981548e-16 6.5655589999999995 0.0
lattice_vector 4.020245621551611e-16 -3.2827800000000003 5.685940999999999
atom 0.84099 -0.97367 2.78657 C
atom 0.84099 -1.35637 4.13182 C
atom 0.84099 -0.38270 5.13588 C
atom 0.84099 0.97367 4.79468 C
atom 0.84099 1.35637 3.44943 C
atom 0.84099 0.38270 2.44538 C
atom 0.84099 -1.73347 2.00306 H
atom 0.84099 -2.41481 4.39807 H
atom 0.84099 -0.68134 6.18564 H
atom 0.84099 1.73347 5.57819 H
atom 0.84099 2.41481 3.18319 H
atom 0.84099 0.68134 1.39562 H
atom 3.86469 3.66548 0.55006 C
atom 3.86469 2.30911 0.89126 C
atom 3.86469 1.92641 2.23651 C
atom 3.86469 2.90008 3.24057 C
atom 3.86469 4.25645 2.89937 C
atom 3.86469 4.63915 1.55412 C
atom 3.86469 3.96412 -0.49969 H
atom 3.86469 1.54931 0.10775 H
atom 3.86469 0.86797 2.50276 H
atom 3.86469 2.60144 4.29032 H
atom 3.86469 5.01625 3.68288 H
atom 3.86469 5.69759 1.28787 H
