lattice_vector 8.33644629 -0.15974902 -0.15569655
lattice_vector 0.15275941 10.68612821 1.00638758
lattice_vector -8.4050316 -0.50314723 6.35692509
atom 6.81509 0.80556 1.58909 C
atom 7.97815 0.69283 1.56186 N
atom 5.42354 0.95480 1.62778 C
atom 4.71602 2.53060 1.87537 S
atom 3.12668 1.87208 1.78112 C
atom 3.14243 0.49778 1.56949 C
atom 4.46001 -0.02927 1.48265 C
atom 2.07557 -0.31838 1.44543 O
atom 2.27623 2.54183 1.88306 H
atom 4.68015 -1.08271 1.31960 H
atom 1.22274 0.19256 1.55362 H
atom -2.57229 6.33619 2.13780 C
atom -3.73933 6.27126 2.13052 N
atom -1.17545 6.42968 2.14034 C
atom -0.40565 7.99540 2.19490 S
atom 1.15593 7.26856 2.15763 C
atom 1.08562 5.88128 2.10095 C
atom -0.25180 5.39945 2.08733 C
atom 2.11861 5.01556 2.06065 O
atom 2.03068 7.91303 2.18280 H
atom -0.51207 4.34475 2.03464 H
atom 2.99189 5.50275 2.03438 H
atom -6.73094 9.21752 5.61854 C
atom -7.89401 9.33022 5.64576 N
atom -5.33941 9.06831 5.57985 C
atom -4.63177 7.49298 5.33166 S
atom -3.04250 8.15141 5.42626 C
atom -3.05837 9.52536 5.63836 C
atom -4.37595 10.05226 5.72526 C
atom -1.99160 10.34148 5.76261 O
atom -2.19201 7.48168 5.32436 H
atom -4.59615 11.10571 5.88830 H
atom -1.13876 9.83079 5.65413 H
atom 2.65636 3.68702 5.07002 C
atom 3.82340 3.75187 5.07709 N
atom 1.25956 3.59372 5.06774 C
atom 0.48972 2.02741 5.01226 S
atom -1.07169 2.75517 5.05066 C
atom -1.00132 4.14203 5.10663 C
atom 0.33602 4.62370 5.12025 C
atom -2.03406 5.00771 5.14656 O
atom -1.94651 2.11028 5.02480 H
atom 0.59638 5.67794 5.17229 H
atom -2.90735 4.52093 5.17322 H
