lattice_vector 6.588236 0.0 0.0
lattice_vector 0.0 15.074834 0.0
lattice_vector 0.717776 0.0 2.909992
atom 6.40113 13.11806 2.95220 O
atom 5.03522 12.91441 2.87534 C
atom 4.44088 13.81910 2.86603 H
atom 4.81308 11.57444 2.83077 C
atom 4.04825 10.26081 2.76048 C
atom 3.48585 10.09154 1.83318 H
atom 3.39017 10.05102 3.61357 H
atom 5.45830 9.53609 2.81908 C
atom 5.70767 8.94738 1.92676 H
atom 5.61381 8.91072 3.70767 H
atom 6.07693 10.92504 2.88181 C
atom 7.03306 11.88794 2.95596 C
atom 8.11314 11.93161 3.01374 H
atom 6.40113 1.95677 2.95220 O
atom 5.03522 2.16043 2.87534 C
atom 4.44088 1.25573 2.86603 H
atom 4.81308 3.50040 2.83077 C
atom 4.04825 4.81402 2.76048 C
atom 3.48585 4.98329 1.83318 H
atom 3.39017 5.02382 3.61357 H
atom 5.45830 5.53875 2.81908 C
atom 5.70767 6.12745 1.92676 H
atom 5.61381 6.16411 3.70767 H
atom 6.07693 4.14979 2.88181 C
atom 7.03306 3.18690 2.95596 C
atom 8.11314 3.14322 3.01374 H
