title geometry
lattice_vector 5.306910 0.000000 0.000000
lattice_vector 0.000000 9.462833 0.000000
lattice_vector -4.034758 0.000000 4.969340
-137.507658 -55.533121 163.157561 -2.550941 2.286075 4.483298 /home/trose/genarris_mpi4py/merged_4_17_2019/tests/full_diverse_workflow/harris_single_molecule_prep_aims_dir/geometry
170.149872 -93.821529 64.624406 -0.533562 7.176755 1.998628 /home/trose/genarris_mpi4py/merged_4_17_2019/tests/full_diverse_workflow/harris_single_molecule_prep_aims_dir/geometry
