lattice_vector 3.7346 0.0 0.0
lattice_vector 3.532231617725523e-16 5.768572 0.0
lattice_vector 7.563578921362632e-16 -2.3316089999999994 12.130209
atom 0.54868 2.77662 3.01657 C
atom 0.25037 3.51858 4.16404 C
atom 0.72065 4.82962 4.29085 C
atom 1.48921 5.39860 3.27017 C
atom 1.78751 4.65663 2.12269 C
atom 1.31724 3.34560 1.99588 C
atom 0.18169 1.75353 2.91761 H
atom -0.34937 3.07440 4.96040 H
atom 0.48798 5.40877 5.18619 H
atom 1.85619 6.42169 3.36912 H
atom 2.38726 5.10082 1.32633 H
atom 1.54990 2.76645 1.10055 H
atom 0.54868 0.66035 9.11364 C
atom 0.25037 -0.08162 7.96617 C
atom 0.72065 -1.39266 7.83936 C
atom 1.48921 -1.96164 8.86004 C
atom 1.78751 -1.21967 10.00752 C
atom 1.31724 0.09136 10.13433 C
atom 0.18169 1.68343 9.21260 H
atom -0.34937 0.36256 7.16981 H
atom 0.48798 -1.97181 6.94402 H
atom 1.85619 -2.98472 8.76109 H
atom 2.38726 -1.66385 10.80388 H
atom 1.54990 0.67052 11.02966 H
