title geometry
lattice_vector 10.573296 0.000000 0.000000
lattice_vector 0.000000 5.931712 0.000000
lattice_vector -0.558243 0.000000 2.828220
151.294026 -25.535213 -137.165397 1.811054 2.119850 2.280625 /home/trose/genarris_mpi4py/merged_4_17_2019/tests/full_diverse_workflow/harris_single_molecule_prep_aims_dir/geometry
28.705459 -154.464588 42.834093 8.204000 2.119850 0.547586 /home/trose/genarris_mpi4py/merged_4_17_2019/tests/full_diverse_workflow/harris_single_molecule_prep_aims_dir/geometry
