title geometry
lattice_vector 4.612805 0.000000 0.000000
lattice_vector 0.000000 10.044871 0.000000
lattice_vector 1.429026 0.000000 4.774497
137.181603 -58.644923 142.135372 4.952599 2.091598 3.424755 /home/trose/genarris_mpi4py/merged_4_17_2019/tests/full_diverse_workflow/harris_single_molecule_prep_aims_dir/geometry
-93.151095 -85.247064 80.337409 4.238086 7.953270 1.037507 /home/trose/genarris_mpi4py/merged_4_17_2019/tests/full_diverse_workflow/harris_single_molecule_prep_aims_dir/geometry
