lattice_vector 10.452549 0.0 0.0
lattice_vector 0.0 7.145418 0.0
lattice_vector -5.172277 0.0 3.252938
atom 2.67715 3.61048 2.21174 O
atom 3.22390 4.76838 2.73467 C
atom 3.64611 4.66395 3.72595 H
atom 3.07061 5.75688 1.81478 C
atom 3.15247 7.14015 1.18598 C
atom 4.16704 7.50710 0.98392 H
atom 2.59052 7.92838 1.70345 H
atom 2.41279 6.51773 -0.07194 C
atom 2.99995 6.52793 -0.99938 H
atom 1.42308 6.94552 -0.27766 H
atom 2.40901 5.19861 0.68684 C
atom 2.17813 3.88583 0.95170 C
atom 1.72415 3.04208 0.44791 H
atom 0.09101 3.53493 3.83821 O
atom 0.63776 2.37704 4.36114 C
atom 1.05997 2.48147 5.35242 H
atom 0.48447 1.38854 3.44125 C
atom 0.56633 0.00526 2.81245 C
atom 1.58090 -0.36168 2.61039 H
atom 0.00438 -0.78296 3.32992 H
atom -0.17335 0.62769 1.55453 C
atom 0.41381 0.61749 0.62709 H
atom -1.16306 0.19990 1.34881 H
atom -0.17713 1.94681 2.31331 C
atom -0.40801 3.25959 2.57817 C
atom -0.86199 4.10334 2.07438 H
