title geometry
lattice_vector 10.452549 0.000000 0.000000
lattice_vector 0.000000 7.145418 0.000000
lattice_vector -5.172277 0.000000 3.252938
-1.886308 -130.607325 -138.284407 2.731362 5.250995 1.368042 /home/trose/genarris_mpi4py/merged_4_17_2019/tests/full_diverse_workflow/harris_single_molecule_prep_aims_dir/geometry
-82.033974 -170.050679 -63.949088 0.145223 1.894419 2.994511 /home/trose/genarris_mpi4py/merged_4_17_2019/tests/full_diverse_workflow/harris_single_molecule_prep_aims_dir/geometry
