lattice_vector 16.979284 0.0 0.0
lattice_vector 0.0 2.923486 0.0
lattice_vector 0.616214 0.0 5.693993
atom 7.38069 0.83011 3.75091 O
atom 6.27842 0.29865 3.10619 C
atom 6.45224 0.00065 2.08014 H
atom 5.23953 0.29974 3.98229 C
atom 3.83279 0.08452 4.52108 C
atom 3.50710 -0.96175 4.58484 H
atom 3.04405 0.66849 4.02939 H
atom 4.35521 0.69782 5.88777 C
atom 4.32857 0.00597 6.73961 H
atom 3.86930 1.63698 6.18223 H
atom 5.70821 0.84804 5.20758 C
atom 7.01937 1.16531 5.04305 C
atom 7.81379 1.59332 5.64097 H
atom 10.21480 0.83011 1.94308 O
atom 11.31708 0.29865 2.58780 C
atom 11.14326 0.00065 3.61385 H
atom 12.35597 0.29974 1.71170 C
atom 13.76271 0.08452 1.17291 C
atom 14.08840 -0.96175 1.10915 H
atom 14.55144 0.66849 1.66460 H
atom 13.24029 0.69782 -0.19377 C
atom 13.26693 0.00597 -1.04562 H
atom 13.72620 1.63698 -0.48824 H
atom 11.88729 0.84804 0.48642 C
atom 10.57613 1.16531 0.65095 C
atom 9.78170 1.59332 0.05302 H
