lattice_vector 11.171502 0.0 0.0
lattice_vector 0.0 5.530941 0.0
lattice_vector -0.987224 0.0 3.332693
atom 6.10169 3.97084 1.04802 O
atom 6.69088 2.72203 1.12829 C
atom 6.42695 2.04294 0.32768 H
atom 7.47147 2.69757 2.24045 C
atom 8.42820 2.16166 3.29544 C
atom 9.43549 1.91400 2.93644 H
atom 8.05121 1.32061 3.89157 H
atom 8.30812 3.57799 4.00006 C
atom 9.24639 4.14565 4.04924 H
atom 7.85918 3.55335 5.00140 H
atom 7.36495 3.96745 2.87108 C
atom 6.52250 4.72941 2.12507 C
atom 6.11820 5.73297 2.16024 H
atom 4.08259 3.97084 2.28467 O
atom 3.49340 2.72203 2.20440 C
atom 3.75733 2.04294 3.00501 H
atom 2.71281 2.69757 1.09224 C
atom 1.75607 2.16166 0.03725 C
atom 0.74879 1.91400 0.39625 H
atom 2.13307 1.32061 -0.55888 H
atom 1.87616 3.57799 -0.66737 C
atom 0.93789 4.14565 -0.71654 H
atom 2.32510 3.55335 -1.66871 H
atom 2.81933 3.96745 0.46161 C
atom 3.66178 4.72941 1.20763 C
atom 4.06608 5.73297 1.17245 H
