title geometry
lattice_vector 11.171502 0.000000 0.000000
lattice_vector 0.000000 5.530941 0.000000
lattice_vector -0.987224 0.000000 3.332693
-69.614386 -35.141188 140.654179 7.257425 3.409745 2.372971 /home/trose/genarris_mpi4py/merged_4_17_2019/tests/full_diverse_workflow/harris_single_molecule_prep_aims_dir/geometry
-110.385301 -144.858581 -39.345822 2.926854 3.409745 0.959714 /home/trose/genarris_mpi4py/merged_4_17_2019/tests/full_diverse_workflow/harris_single_molecule_prep_aims_dir/geometry
