lattice_vector 14.543448 0.0 0.0
lattice_vector 0.0 5.490969 0.0
lattice_vector -1.952285 0.0 2.709488
atom 3.26536 5.77568 0.91833 O
atom 2.43254 4.94750 0.18781 C
atom 2.13632 5.33808 -0.77733 H
atom 2.21030 3.82471 0.92047 C
atom 1.66264 2.45500 1.29395 C
atom 1.99643 1.62437 0.65876 H
atom 0.57214 2.39629 1.40453 H
atom 2.45859 2.60405 2.65819 C
atom 3.24948 1.85817 2.81040 H
atom 1.82630 2.63407 3.55493 H
atom 2.92488 3.95773 2.14248 C
atom 3.56217 5.15781 2.11945 C
atom 4.21300 5.72389 2.77351 H
atom 9.32580 5.77568 1.79116 O
atom 10.15863 4.94750 2.52168 C
atom 10.45485 5.33808 3.48682 H
atom 10.38086 3.82471 1.78902 C
atom 10.92852 2.45500 1.41553 C
atom 10.59474 1.62437 2.05073 H
atom 12.01902 2.39629 1.30496 H
atom 10.13257 2.60405 0.05130 C
atom 9.34169 1.85817 -0.10091 H
atom 10.76486 2.63407 -0.84545 H
atom 9.66628 3.95773 0.56701 C
atom 9.02899 5.15781 0.59004 C
atom 8.37816 5.72389 -0.06402 H
