lattice_vector 6.410868 0.0 0.0
lattice_vector 0.0 14.87601 0.0
lattice_vector 3.04276 0.0 3.100652
atom 6.22447 1.59698 0.51618 O
atom 4.99332 2.19285 0.31046 C
atom 4.16469 1.50270 0.21631 H
atom 5.17843 3.53890 0.28341 C
atom 4.84317 5.01901 0.17197 C
atom 4.19349 5.41626 0.96250 H
atom 4.45077 5.34263 -0.80073 H
atom 6.39019 5.29739 0.38677 C
atom 6.63202 5.85691 1.29970 H
atom 6.88996 5.77903 -0.46358 H
atom 6.56470 3.78836 0.47740 C
atom 7.18466 2.58712 0.61718 C
atom 8.19276 2.22814 0.78053 H
atom 6.22447 13.27903 0.51618 O
atom 4.99332 12.68316 0.31046 C
atom 4.16469 13.37331 0.21631 H
atom 5.17843 11.33711 0.28341 C
atom 4.84317 9.85700 0.17197 C
atom 4.19349 9.45975 0.96250 H
atom 4.45077 9.53338 -0.80073 H
atom 6.39019 9.57862 0.38677 C
atom 6.63202 9.01910 1.29970 H
atom 6.88996 9.09698 -0.46358 H
atom 6.56470 11.08765 0.47740 C
atom 7.18466 12.28889 0.61718 C
atom 8.19276 12.64787 0.78053 H
