title geometry
lattice_vector 6.410868 0.000000 0.000000
lattice_vector 0.000000 14.876010 0.000000
lattice_vector 3.042760 0.000000 3.100652
-153.313348 -108.226635 22.157515 5.914563 3.412349 0.395953 /home/trose/genarris_mpi4py/merged_4_17_2019/tests/full_diverse_workflow/harris_single_molecule_prep_aims_dir/geometry
147.685716 -59.443592 -144.346237 5.914563 11.463657 0.395953 /home/trose/genarris_mpi4py/merged_4_17_2019/tests/full_diverse_workflow/harris_single_molecule_prep_aims_dir/geometry
