lattice_vector 4.9792 0.0 0.0
lattice_vector 0.0 4.642179 0.0
lattice_vector 11.208111 0.0 12.113111
atom 7.79267 1.12440 7.81187 O
atom 7.87291 0.04363 8.67129 C
atom 7.07671 -0.68191 8.56429 H
atom 8.97961 0.20354 9.44362 C
atom 10.02721 -0.09233 10.50688 C
atom 10.63193 -0.99223 10.33563 H
atom 9.65952 -0.10787 11.54101 H
atom 10.72556 1.26469 10.07364 C
atom 11.73345 1.14729 9.65487 H
atom 10.75774 2.03234 10.85756 H
atom 9.60623 1.41901 9.05427 C
atom 8.86343 1.96495 8.05574 C
atom 8.89826 2.84964 7.43290 H
atom 8.39465 1.12440 4.30124 O
atom 8.31440 0.04363 3.44182 C
atom 9.11060 -0.68191 3.54883 H
atom 7.20771 0.20354 2.66949 C
atom 6.16010 -0.09233 1.60623 C
atom 5.55538 -0.99223 1.77748 H
atom 6.52780 -0.10787 0.57210 H
atom 5.46175 1.26469 2.03947 C
atom 4.45386 1.14729 2.45824 H
atom 5.42957 2.03234 1.25555 H
atom 6.58108 1.41901 3.05884 C
atom 7.32388 1.96495 4.05737 C
atom 7.28905 2.84964 4.68021 H
