lattice_vector 4.966753 0.0 0.0
lattice_vector 0.0 12.097572 0.0
lattice_vector -2.841442 0.0 3.71106
atom 3.45784 10.94272 0.12344 O
atom 2.40316 10.14430 -0.28065 C
atom 1.68407 10.63347 -0.92519 H
atom 2.57408 8.91371 0.27004 C
atom 2.29680 7.45695 0.61136 C
atom 2.32009 6.76105 -0.23717 H
atom 1.38311 7.27320 1.19124 H
atom 3.62948 7.49438 1.47128 C
atom 4.41995 6.81860 1.11989 H
atom 3.48328 7.33495 2.54741 H
atom 3.76926 8.94692 1.03951 C
atom 4.29246 10.19685 0.93560 C
atom 5.15724 10.72930 1.31040 H
atom 3.45784 1.15485 0.12344 O
atom 2.40316 1.95327 -0.28065 C
atom 1.68407 1.46410 -0.92519 H
atom 2.57408 3.18386 0.27004 C
atom 2.29680 4.64062 0.61136 C
atom 2.32009 5.33652 -0.23717 H
atom 1.38311 4.82437 1.19124 H
atom 3.62948 4.60319 1.47128 C
atom 4.41995 5.27898 1.11989 H
atom 3.48328 4.76262 2.54741 H
atom 3.76926 3.15065 1.03951 C
atom 4.29246 1.90073 0.93560 C
atom 5.15724 1.36828 1.31040 H
