lattice_vector 10.495543 0.0 0.0
lattice_vector 0.0 4.468357 0.0
lattice_vector 6.293639 0.0 6.640825
atom 5.22331 3.94444 3.64388 O
atom 4.51160 3.21558 4.57947 C
atom 3.49029 3.54200 4.72838 H
atom 5.33201 2.25014 5.07110 C
atom 5.79352 1.06607 5.90807 C
atom 5.27603 0.11848 5.71031 H
atom 5.81603 1.23423 6.99254 H
atom 7.19868 1.21403 5.18660 C
atom 7.49215 0.35104 4.57494 H
atom 8.03063 1.47031 5.85520 H
atom 6.59087 2.38189 4.42338 C
atom 6.50149 3.42385 3.55552 C
atom 7.14830 3.92405 2.84612 H
atom 11.56587 6.17862 2.99695 O
atom 12.27758 5.44976 2.06135 C
atom 13.29889 5.77618 1.91244 H
atom 11.45717 4.48432 1.56973 C
atom 10.99567 3.30025 0.73276 C
atom 11.51315 2.35266 0.93051 H
atom 10.97315 3.46841 -0.35171 H
atom 9.59050 3.44821 1.45422 C
atom 9.29703 2.58522 2.06588 H
atom 8.75855 3.70449 0.78562 H
atom 10.19831 4.61607 2.21744 C
atom 10.28770 5.65803 3.08531 C
atom 9.64088 6.15823 3.79471 H
