title geometry
lattice_vector 10.495543 0.000000 0.000000
lattice_vector 0.000000 4.468357 0.000000
lattice_vector 6.293639 0.000000 6.640825
-173.730296 -86.372765 168.265393 5.871962 2.514573 4.613817 /home/trose/genarris_mpi4py/merged_4_17_2019/tests/full_diverse_workflow/harris_single_molecule_prep_aims_dir/geometry
-6.269822 -93.627818 -11.734594 10.917222 4.748752 2.027000 /home/trose/genarris_mpi4py/merged_4_17_2019/tests/full_diverse_workflow/harris_single_molecule_prep_aims_dir/geometry
