title geometry
lattice_vector 14.817119 0.000000 0.000000
lattice_vector 0.000000 3.938342 0.000000
lattice_vector 2.932198 0.000000 4.681567
-49.415417 -38.039382 -71.039979 4.407824 3.018293 1.261123 /home/trose/genarris_mpi4py/merged_4_17_2019/tests/full_diverse_workflow/harris_single_molecule_prep_aims_dir/geometry
-130.584702 -141.960889 108.959951 13.341494 3.018293 3.420435 /home/trose/genarris_mpi4py/merged_4_17_2019/tests/full_diverse_workflow/harris_single_molecule_prep_aims_dir/geometry
