lattice_vector 2.983176 0.0 0.0
lattice_vector 5.954387655274523e-16 9.724253 0.0
lattice_vector 5.954387655274523e-16 5.954387655274523e-16 9.724253
atom 0.00000 -1.39855 4.86213 C
atom 0.00000 -0.69930 6.07343 C
atom 0.00000 0.69929 6.07343 C
atom 0.00000 1.39854 4.86213 C
atom 0.00000 0.69929 3.65082 C
atom 0.00000 -0.69930 3.65082 C
atom 0.00000 -2.48995 4.86213 H
atom 0.00000 -1.24513 7.01854 H
atom 0.00000 1.24513 7.01854 H
atom 0.00000 2.48995 4.86213 H
atom 0.00000 1.24513 2.70571 H
atom 0.00000 -1.24513 2.70571 H
atom 0.00000 4.86213 -1.39855 C
atom 0.00000 3.65082 -0.69930 C
atom 0.00000 3.65082 0.69929 C
atom 0.00000 4.86213 1.39855 C
atom 0.00000 6.07343 0.69929 C
atom 0.00000 6.07343 -0.69930 C
atom 0.00000 4.86213 -2.48995 H
atom 0.00000 2.70571 -1.24513 H
atom 0.00000 2.70571 1.24513 H
atom 0.00000 4.86213 2.48995 H
atom 0.00000 7.01855 1.24513 H
atom 0.00000 7.01855 -1.24513 H
