lattice_vector 6.524562 0.0 0.0
lattice_vector 0.0 15.930177 0.0
lattice_vector 1.163945 0.0 2.718286
atom 2.71502 11.67943 -1.46861 O
atom 2.26291 10.60234 -0.72795 C
atom 2.76764 9.66674 -0.93214 H
atom 1.26672 11.04156 0.08541 C
atom 0.16523 11.00204 1.13454 C
atom 0.49213 10.75341 2.15246 H
atom -0.70435 10.38104 0.88345 H
atom -0.02956 12.55310 0.86402 C
atom 0.18281 13.19823 1.72641 H
atom -1.01073 12.82556 0.45426 H
atom 1.09322 12.43197 -0.15604 C
atom 1.98873 12.80022 -1.10961 C
atom 2.26345 13.70710 -1.63298 H
atom 2.71502 4.25075 -1.46861 O
atom 2.26291 5.32784 -0.72795 C
atom 2.76764 6.26344 -0.93214 H
atom 1.26672 4.88862 0.08541 C
atom 0.16523 4.92813 1.13454 C
atom 0.49213 5.17676 2.15246 H
atom -0.70435 5.54913 0.88345 H
atom -0.02956 3.37708 0.86402 C
atom 0.18281 2.73195 1.72641 H
atom -1.01073 3.10462 0.45426 H
atom 1.09322 3.49821 -0.15604 C
atom 1.98873 3.12996 -1.10961 C
atom 2.26345 2.22307 -1.63298 H
