title geometry
lattice_vector 4.410588 0.000000 0.000000
lattice_vector 0.000000 7.443058 0.000000
lattice_vector 4.132138 0.000000 4.191252
79.105102 -86.011176 163.523677 6.356424 0.340761 2.502387 /home/trose/genarris_mpi4py/merged_4_17_2019/tests/full_diverse_workflow/harris_single_molecule_prep_aims_dir/geometry
100.895005 -93.988493 -16.476672 2.186303 4.062290 1.688856 /home/trose/genarris_mpi4py/merged_4_17_2019/tests/full_diverse_workflow/harris_single_molecule_prep_aims_dir/geometry
