lattice_vector 10.159426 0.0 0.0
lattice_vector 0.0 3.57722 0.0
lattice_vector 7.39212 0.0 5.734916
atom 14.71012 2.03474 3.40558 O
atom 13.92466 1.45165 4.38342 C
atom 12.90118 1.25837 4.08857 H
atom 14.69389 1.27701 5.49005 C
atom 15.07689 0.87929 6.90802 C
atom 15.03210 -0.19583 7.12469 H
atom 14.55530 1.42072 7.70780 H
atom 16.52891 1.42616 6.57715 C
atom 17.32125 0.66695 6.60530 H
atom 16.84295 2.28480 7.18458 H
atom 15.99559 1.76581 5.19294 C
atom 15.98231 2.22426 3.91368 C
atom 16.68398 2.67806 3.22553 H
atom 2.84143 2.03474 2.32933 O
atom 3.62689 1.45165 1.35150 C
atom 4.65036 1.25837 1.64634 H
atom 2.85766 1.27701 0.24487 C
atom 2.47465 0.87929 -1.17311 C
atom 2.51944 -0.19583 -1.38978 H
atom 2.99625 1.42072 -1.97289 H
atom 1.02264 1.42616 -0.84223 C
atom 0.23030 0.66695 -0.87038 H
atom 0.70860 2.28480 -1.44966 H
atom 1.55596 1.76581 0.54198 C
atom 1.56924 2.22426 1.82124 C
atom 0.86756 2.67806 2.50938 H
