lattice_vector 17.522278 0.0 0.0
lattice_vector 0.0 2.999406 0.0
lattice_vector 5.155013 0.0 4.231782
atom 14.75697 1.44542 3.28097 O
atom 15.71256 2.11604 2.53920 C
atom 16.61831 2.35991 3.07951 H
atom 15.22349 2.28789 1.28296 C
atom 15.16606 2.72288 -0.17410 C
atom 15.89954 2.24694 -0.83766 H
atom 15.18952 3.80693 -0.34481 H
atom 13.71757 2.07738 -0.22011 C
atom 13.61551 1.23102 -0.91166 H
atom 12.90586 2.79021 -0.41460 H
atom 13.92593 1.70805 1.24141 C
atom 13.66148 1.19938 2.47355 C
atom 12.84802 0.67464 2.95808 H
atom 7.92032 1.44542 0.95082 O
atom 6.96473 2.11604 1.69259 C
atom 6.05898 2.35991 1.15227 H
atom 7.45380 2.28789 2.94882 C
atom 7.51123 2.72288 4.40588 C
atom 6.77775 2.24694 5.06944 H
atom 7.48777 3.80693 4.57659 H
atom 8.95972 2.07738 4.45189 C
atom 9.06178 1.23102 5.14345 H
atom 9.77143 2.79021 4.64638 H
atom 8.75136 1.70805 2.99038 C
atom 9.01581 1.19938 1.75823 C
atom 9.82927 0.67464 1.27371 H
