title geometry
lattice_vector 12.308742 0.000000 0.000000
lattice_vector 0.000000 3.863921 0.000000
lattice_vector 0.956718 0.000000 5.142519
-179.232150 -128.860753 -38.978133 10.015125 1.459499 2.383616 /home/trose/genarris_mpi4py/merged_4_17_2019/tests/full_diverse_workflow/harris_single_molecule_prep_aims_dir/geometry
-0.768278 -51.139179 141.022218 3.250336 1.459499 2.758894 /home/trose/genarris_mpi4py/merged_4_17_2019/tests/full_diverse_workflow/harris_single_molecule_prep_aims_dir/geometry
