title geometry
lattice_vector 21.293133 0.000000 0.000000
lattice_vector 0.000000 5.107111 0.000000
lattice_vector -1.519555 0.000000 2.787689
-115.106173 -126.580741 0.343364 5.583132 3.486345 1.457322 /home/trose/genarris_mpi4py/merged_4_17_2019/tests/full_diverse_workflow/harris_single_molecule_prep_aims_dir/geometry
-64.894143 -53.419447 -179.656274 14.190447 3.486345 1.330357 /home/trose/genarris_mpi4py/merged_4_17_2019/tests/full_diverse_workflow/harris_single_molecule_prep_aims_dir/geometry
