title geometry
lattice_vector 6.061903 0.000000 0.000000
lattice_vector 0.000000 3.030778 0.000000
lattice_vector 6.971617 0.000000 12.808621
-140.507844 -89.110839 88.209148 5.069177 1.253475 2.731178 /home/trose/genarris_mpi4py/merged_4_17_2019/tests/full_diverse_workflow/harris_single_molecule_prep_aims_dir/geometry
-39.492202 -90.889256 -91.790726 7.964345 1.253475 10.077435 /home/trose/genarris_mpi4py/merged_4_17_2019/tests/full_diverse_workflow/harris_single_molecule_prep_aims_dir/geometry
