lattice_vector 3.982007 0.0 0.0
lattice_vector 0.0 18.180168 0.0
lattice_vector -0.158814 0.0 3.932397
atom -0.49708 14.27900 2.22195 O
atom -1.05711 13.46784 1.25164 C
atom -1.91048 13.89433 0.74012 H
atom -0.34586 12.31054 1.21113 C
atom 0.07574 10.91435 0.77705 C
atom 0.43135 10.82948 -0.25792 H
atom -0.65885 10.12003 0.96223 H
atom 1.22655 11.01735 1.86421 C
atom 2.24528 10.98959 1.45624 H
atom 1.15343 10.28394 2.67759 H
atom 0.68642 12.40354 2.18447 C
atom 0.57467 13.61493 2.79021 C
atom 1.08962 14.16430 3.56792 H
atom -0.49708 3.90117 2.22195 O
atom -1.05711 4.71233 1.25164 C
atom -1.91048 4.28583 0.74012 H
atom -0.34586 5.86962 1.21113 C
atom 0.07574 7.26582 0.77705 C
atom 0.43135 7.35069 -0.25792 H
atom -0.65885 8.06014 0.96223 H
atom 1.22655 7.16281 1.86421 C
atom 2.24528 7.19058 1.45624 H
atom 1.15343 7.89623 2.67759 H
atom 0.68642 5.77663 2.18447 C
atom 0.57467 4.56524 2.79021 C
atom 1.08962 4.01587 3.56792 H
