lattice_vector 7.33145 0.0 0.0
lattice_vector 0.0 9.566944 0.0
lattice_vector -4.605927 0.0 4.601534
atom 1.47778 -1.18705 5.20670 O
atom 1.13419 -0.64362 3.98205 C
atom 0.60395 -1.31572 3.31954 H
atom 1.57895 0.64021 3.95357 C
atom 1.84802 2.04108 3.42378 C
atom 0.95652 2.65183 3.23129 H
atom 2.50741 2.09644 2.54800 H
atom 2.56281 2.33460 4.80935 C
atom 2.08480 3.11591 5.41439 H
atom 3.63505 2.55638 4.73216 H
atom 2.21825 0.90364 5.19596 C
atom 2.14468 -0.22724 5.94599 C
atom 2.46123 -0.54955 6.92973 H
atom 3.78074 10.75399 2.90593 O
atom 3.43715 10.21057 1.68129 C
atom 2.90691 10.88267 1.01878 H
atom 3.88191 8.92674 1.65280 C
atom 4.15098 7.52586 1.12301 C
atom 3.25949 6.91511 0.93052 H
atom 4.81038 7.47051 0.24723 H
atom 4.86578 7.23234 2.50859 C
atom 4.38776 6.45104 3.11363 H
atom 5.93801 7.01056 2.43140 H
atom 4.52121 8.66330 2.89519 C
atom 4.44764 9.79418 3.64523 C
atom 4.76420 10.11649 4.62896 H
