lattice_vector 4.025329 0.0 0.0
lattice_vector 0.0 12.630772 0.0
lattice_vector 6.060465 0.0 4.95917
atom 3.15529 11.38221 1.34739 O
atom 3.02174 10.98209 0.03013 C
atom 2.47801 11.67285 -0.60154 H
atom 3.63921 9.77930 -0.10723 C
atom 4.14930 8.50996 -0.77365 C
atom 4.90181 8.65912 -1.55870 H
atom 3.37445 7.83198 -1.15420 H
atom 4.74257 8.10809 0.64178 C
atom 5.83661 8.02341 0.67208 H
atom 4.30739 7.19981 1.07822 H
atom 4.17216 9.41991 1.16101 C
atom 3.86423 10.41407 2.03489 C
atom 4.02733 10.62834 3.08337 H
atom 3.15529 1.24856 1.34739 O
atom 3.02174 1.64868 0.03013 C
atom 2.47801 0.95792 -0.60154 H
atom 3.63921 2.85147 -0.10723 C
atom 4.14930 4.12082 -0.77365 C
atom 4.90181 3.97165 -1.55870 H
atom 3.37445 4.79879 -1.15420 H
atom 4.74257 4.52268 0.64178 C
atom 5.83661 4.60736 0.67208 H
atom 4.30739 5.43096 1.07822 H
atom 4.17216 3.21086 1.16101 C
atom 3.86423 2.21670 2.03489 C
atom 4.02733 2.00243 3.08337 H
