title geometry
lattice_vector 4.025329 0.000000 0.000000
lattice_vector 0.000000 12.630772 0.000000
lattice_vector 6.060465 0.000000 4.959170
96.270281 -41.816093 -53.684863 3.813627 9.815869 0.626812 /home/trose/genarris_mpi4py/merged_4_17_2019/tests/full_diverse_workflow/harris_single_molecule_prep_aims_dir/geometry
-160.540705 -56.219701 -24.068151 3.813627 2.814899 0.626812 /home/trose/genarris_mpi4py/merged_4_17_2019/tests/full_diverse_workflow/harris_single_molecule_prep_aims_dir/geometry
