# 
# This is the geometry file that corresponds to the current relaxation step.
# If you do not want this file to be written, set the "write_restart_geometry" flag to .false.
#  aims_uuid : 7A846133-40FA-4504-A14F-F919BA0C22F1                                
# 
lattice_vector      5.15173600      0.00000000      0.00000000
lattice_vector      0.00000000     10.61875900      0.00000000
lattice_vector     -5.03208400      0.00000000      4.86275800
atom       1.53816142      4.08427964      4.45375096 O
atom       0.33688103      4.28047095      3.78107473 C
atom      -0.22498779      5.16065213      4.07762089 H
atom       0.23851060      3.34623380      2.78897399 C
atom      -0.33572293      2.57178722      1.63176269 C
atom      -0.46112969      3.14994291      0.68349420 H
atom      -1.29066153      2.03294473      1.80816170 H
atom       0.97499256      1.67020491      1.69579995 C
atom       1.59863263      1.84336558      0.77636747 H
atom       0.83897564      0.58791722      1.82948173 H
atom       1.38761862      2.49227504      2.88296227 C
atom       2.14508791      2.92678261      3.94108533 C
atom       3.11010943      2.68875217      4.37816882 H
atom       4.05417898      6.53453837      2.02241135 O
atom       2.85292469      6.33828045      1.34968824 C
atom       2.29105313      5.45810274      1.64623439 H
atom       2.75455169      7.27252426      0.35759311 C
atom       2.18031596      8.04697400     -0.79961534 C
atom       2.05490490      7.46882163     -1.74788564 H
atom       1.22538115      8.58581934     -0.62321612 H
atom       3.49103460      8.94854732     -0.73558022 C
atom       4.11467096      8.77538220     -1.65501507 H
atom       3.35502336     10.03083458     -0.60189871 H
atom       3.90366356      8.12647473      0.45157903 C
atom       4.66113824      7.69195820      1.50969409 C
atom       5.62616089      7.92998325      1.94677617 H
