lattice_vector 5.151736 0.0 0.0
lattice_vector 0.0 10.618759 0.0
lattice_vector -5.032084 0.0 4.862758
atom 1.11665 4.20560 4.55712 O
atom -0.05203 4.17384 3.81801 C
atom -0.84307 4.81156 4.19133 H
atom 0.12970 3.31172 2.78333 C
atom -0.18405 2.50569 1.53137 C
atom -0.37529 3.09605 0.62597 H
atom -0.98079 1.75823 1.63801 H
atom 1.28772 1.92376 1.64146 C
atom 1.94404 2.17669 0.79867 H
atom 1.33899 0.84103 1.81441 H
atom 1.44927 2.79134 2.88123 C
atom 2.03389 3.35135 3.97277 C
atom 2.99143 3.29959 4.47502 H
atom 3.63269 6.41316 2.12574 O
atom 2.46401 6.44491 1.38663 C
atom 1.67297 5.80719 1.75995 H
atom 2.64575 7.30704 0.35195 C
atom 2.33199 8.11306 -0.90001 C
atom 2.14075 7.52271 -1.80541 H
atom 1.53526 8.86053 -0.79337 H
atom 3.80377 8.69500 -0.78992 C
atom 4.46008 8.44207 -1.63270 H
atom 3.85503 9.77773 -0.61697 H
atom 3.96531 7.82742 0.44985 C
atom 4.54993 7.26741 1.54139 C
atom 5.50747 7.31917 2.04364 H
