lattice_vector 6.171705 0.0 0.0
lattice_vector -3.085853 5.344853 0.0
lattice_vector 0.0 0.0 6.255871
atom 0.23664 4.94170 0.61188 C
atom 1.31211 4.04753 0.61188 C
atom 1.07546 2.66906 0.61188 C
atom -0.23665 2.18477 0.61188 C
atom -1.31211 3.07894 0.61188 C
atom -1.07546 4.45741 0.61188 C
atom 0.42131 6.01737 0.61188 H
atom 2.33600 4.42544 0.61188 H
atom 1.91469 1.97130 0.61188 H
atom -0.42131 1.10910 0.61188 H
atom -2.33600 2.70103 0.61188 H
atom -1.91469 5.15517 0.61188 H
atom -1.07546 2.66906 3.73981 C
atom 0.23664 2.18477 3.73981 C
atom 1.31211 3.07894 3.73981 C
atom 1.07546 4.45741 3.73981 C
atom -0.23665 4.94170 3.73981 C
atom -1.31211 4.04753 3.73981 C
atom -1.91469 1.97130 3.73981 H
atom 0.42131 1.10910 3.73981 H
atom 2.33600 2.70103 3.73981 H
atom 1.91469 5.15517 3.73981 H
atom -0.42131 6.01737 3.73981 H
atom -2.33600 4.42544 3.73981 H
