lattice_vector 5.864261 0.0 0.0
lattice_vector 3.94044313528531e-16 6.435232 0.0
lattice_vector 3.9404429278121156e-16 -3.217615999999999 5.573074
atom 2.57573 1.21125 0.69931 C
atom 2.57573 1.21125 -0.69931 C
atom 2.57573 -0.00000 -1.39863 C
atom 2.57573 -1.21125 -0.69931 C
atom 2.57573 -1.21125 0.69931 C
atom 2.57573 -0.00000 1.39863 C
atom 2.57573 2.15644 1.24502 H
atom 2.57573 2.15644 -1.24502 H
atom 2.57573 -0.00000 -2.49004 H
atom 2.57573 -2.15644 -1.24502 H
atom 2.57573 -2.15644 1.24502 H
atom 2.57573 -0.00000 2.49004 H
atom 5.50786 0.00000 1.39863 C
atom 5.50786 1.21125 0.69931 C
atom 5.50786 1.21125 -0.69931 C
atom 5.50786 -0.00000 -1.39863 C
atom 5.50786 -1.21125 -0.69931 C
atom 5.50786 -1.21125 0.69931 C
atom 5.50786 0.00000 2.49004 H
atom 5.50786 2.15644 1.24502 H
atom 5.50786 2.15644 -1.24502 H
atom 5.50786 -0.00000 -2.49004 H
atom 5.50786 -2.15644 -1.24502 H
atom 5.50786 -2.15644 1.24502 H
