lattice_vector 30.959246 0.0 0.0
lattice_vector 0.0 3.447476 0.0
lattice_vector 4.624961 0.0 3.328382
atom 8.25527 2.34909 2.19911 O
atom 9.23360 1.80445 1.38710 C
atom 8.89171 1.49857 0.40661 H
atom 10.40264 1.80680 2.08005 C
atom 11.87693 1.58336 2.38349 C
atom 12.57814 2.15921 1.76581 H
atom 12.20237 0.53518 2.39978 H
atom 11.58897 2.20869 3.81280 C
atom 12.12577 3.14355 4.01986 H
atom 11.74583 1.51971 4.65277 H
atom 10.14478 2.36861 3.36048 C
atom 8.82594 2.69259 3.41109 C
atom 8.14308 3.13152 4.12723 H
atom 27.32893 2.34909 1.12927 O
atom 26.35061 1.80445 1.94128 C
atom 26.69249 1.49857 2.92177 H
atom 25.18157 1.80680 1.24834 C
atom 23.70728 1.58336 0.94489 C
atom 23.00607 2.15921 1.56257 H
atom 23.38184 0.53518 0.92861 H
atom 23.99524 2.20869 -0.48442 C
atom 23.45844 3.14355 -0.69148 H
atom 23.83838 1.51971 -1.32439 H
atom 25.43942 2.36861 -0.03210 C
atom 26.75826 2.69259 -0.08271 C
atom 27.44113 3.13152 -0.79884 H
