lattice_vector 6.510577 0.0 0.0
lattice_vector 0.0 10.086892 0.0
lattice_vector 0.103612 0.0 3.700637
atom 3.52512 2.52592 4.45610 O
atom 3.17034 1.62012 3.47286 C
atom 2.11897 1.61807 3.21511 H
atom 4.29281 0.95717 3.08896 C
atom 5.17710 -0.02477 2.33441 C
atom 5.26114 0.15020 1.25406 H
atom 4.95417 -1.08642 2.50191 H
atom 6.38731 0.53996 3.19079 C
atom 7.16983 1.03834 2.60403 H
atom 6.86004 -0.19586 3.85406 H
atom 5.37763 1.46439 3.85547 C
atom 4.88511 2.42199 4.68450 C
atom 5.27165 3.09201 5.44178 H
atom 3.08907 7.56937 -0.75546 O
atom 3.44385 6.66356 0.22777 C
atom 4.49521 6.66151 0.48552 H
atom 2.32137 6.00061 0.61167 C
atom 1.43708 5.01867 1.36623 C
atom 1.35305 5.19364 2.44658 H
atom 1.66001 3.95702 1.19872 H
atom 0.22688 5.58341 0.50985 C
atom -0.55564 6.08178 1.09660 H
atom -0.24585 4.84759 -0.15342 H
atom 1.23656 6.50784 -0.15484 C
atom 1.72908 7.46544 -0.98386 C
atom 1.34254 8.13545 -1.74115 H
