lattice_vector 3.479124 0.0 0.0
lattice_vector 0.0 10.723639 0.0
lattice_vector -8.221753 0.0 4.934787
atom -1.82270 4.37727 2.61088 O
atom -2.39299 3.71629 1.53804 C
atom -2.00634 4.00494 0.56903 H
atom -3.32070 2.85040 2.02429 C
atom -4.40792 1.78576 2.02999 C
atom -4.10256 0.79785 1.66172 H
atom -5.34831 2.06818 1.53931 H
atom -4.41802 1.92716 3.61012 C
atom -4.12076 1.02033 4.15261 H
atom -5.36366 2.29387 4.02981 H
atom -3.32864 2.97613 3.44054 C
atom -2.40546 3.91503 3.77676 C
atom -2.02942 4.36950 4.68443 H
atom -1.82270 6.34637 2.61088 O
atom -2.39299 7.00735 1.53804 C
atom -2.00634 6.71870 0.56903 H
atom -3.32070 7.87324 2.02429 C
atom -4.40792 8.93788 2.02999 C
atom -4.10256 9.92579 1.66172 H
atom -5.34831 8.65546 1.53931 H
atom -4.41802 8.79648 3.61012 C
atom -4.12076 9.70331 4.15261 H
atom -5.36366 8.42977 4.02981 H
atom -3.32864 7.74751 3.44054 C
atom -2.40546 6.80861 3.77676 C
atom -2.02942 6.35414 4.68443 H
