lattice_vector 4.863413 0.0 0.0
lattice_vector 0.0 15.222632 0.0
lattice_vector -1.575778 0.0 3.043768
atom 2.22500 8.23479 1.22857 O
atom 3.35050 8.77054 1.82801 C
atom 4.21175 8.11498 1.84494 H
atom 3.04486 10.02697 2.24610 C
atom 3.22576 11.39942 2.87790 C
atom 3.95429 12.05428 2.38269 H
atom 3.42944 11.39988 3.95650 H
atom 1.71354 11.68204 2.49035 C
atom 1.57021 12.50107 1.77366 H
atom 1.04510 11.84261 3.34606 H
atom 1.68999 10.28072 1.89741 C
atom 1.20884 9.17162 1.27673 C
atom 0.27501 8.85304 0.83143 H
atom 3.01289 6.98784 -0.29332 O
atom 4.13839 6.45210 0.30612 C
atom 4.99965 7.10765 0.32306 H
atom 3.83274 5.19567 0.72421 C
atom 4.01365 3.82322 1.35602 C
atom 4.74218 3.16835 0.86080 H
atom 4.21733 3.82275 2.43462 H
atom 2.50143 3.54059 0.96847 C
atom 2.35810 2.72156 0.25177 H
atom 1.83299 3.38002 1.82418 H
atom 2.47788 4.94191 0.37552 C
atom 1.99673 6.05101 -0.24516 C
atom 1.06290 6.36959 -0.69045 H
