lattice_vector 8.732864 0.0 0.0
lattice_vector 0.0 8.760174 0.0
lattice_vector 1.372348 0.0 4.012102
atom 4.42786 8.42138 1.28495 O
atom 3.42250 7.65892 1.85154 C
atom 2.41795 8.00268 1.64058 H
atom 4.00510 6.64597 2.54534 C
atom 4.12714 5.40437 3.41659 C
atom 3.71355 4.48340 2.98581 H
atom 3.75490 5.50958 4.44384 H
atom 5.69886 5.55685 3.26387 C
atom 6.19145 4.72293 2.74720 H
atom 6.23212 5.75278 4.20307 H
atom 5.41367 6.78183 2.40719 C
atom 5.64908 7.87370 1.63307 C
atom 6.51105 8.39671 1.23899 H
atom 3.74168 0.33879 -0.72110 O
atom 2.73633 1.10126 -0.15451 C
atom 1.73178 0.75749 -0.36547 H
atom 3.31892 2.11421 0.53929 C
atom 3.44096 3.35580 1.41054 C
atom 3.02737 4.27678 0.97976 H
atom 3.06873 3.25060 2.43779 H
atom 5.01269 3.20333 1.25782 C
atom 5.50528 4.03724 0.74115 H
atom 5.54595 3.00740 2.19702 H
atom 4.72750 1.97834 0.40114 C
atom 4.96291 0.88647 -0.37298 C
atom 5.82487 0.36346 -0.76706 H
