lattice_vector 12.255252 0.0 0.0
lattice_vector 0.0 6.886029 0.0
lattice_vector -0.673152 0.0 3.55758
atom 1.91743 8.04124 0.48231 O
atom 0.98638 7.06304 0.78131 C
atom 0.08586 7.09449 0.18141 H
atom 1.48687 6.30238 1.79014 C
atom 1.56307 5.20387 2.84038 C
atom 1.57668 4.17813 2.44986 H
atom 0.81614 5.26438 3.64243 H
atom 2.98971 5.78472 3.22011 C
atom 3.82524 5.09321 3.05066 H
atom 3.06402 6.18263 4.24040 H
atom 2.76609 6.82212 2.12941 C
atom 3.00851 7.88461 1.31750 C
atom 3.80331 8.60401 1.16724 H
atom 9.66467 4.59822 3.07527 O
atom 10.59572 3.62002 2.77627 C
atom 11.49624 3.65148 3.37617 H
atom 10.09523 2.85937 1.76744 C
atom 10.01903 1.76085 0.71720 C
atom 10.00542 0.73511 1.10772 H
atom 10.76596 1.82137 -0.08485 H
atom 8.59239 2.34171 0.33747 C
atom 7.75686 1.65020 0.50692 H
atom 8.51808 2.73962 -0.68282 H
atom 8.81601 3.37910 1.42817 C
atom 8.57359 4.44160 2.24008 C
atom 7.77879 5.16100 2.39034 H
