lattice_vector 10.533323 0.0 0.0
lattice_vector 0.0 4.562282 0.0
lattice_vector 9.210765 0.0 5.774656
atom 6.38516 -0.60065 2.22610 O
atom 6.48929 -1.02951 3.53696 C
atom 5.81346 -1.83054 3.80788 H
atom 7.45522 -0.29109 4.14406 C
atom 8.38310 0.21209 5.24013 C
atom 9.11518 -0.51734 5.61002 H
atom 7.88768 0.67975 6.10077 H
atom 8.95300 1.23448 4.16922 C
atom 10.01386 1.09588 3.92354 H
atom 8.78338 2.29153 4.41152 H
atom 7.96694 0.62416 3.18380 C
atom 7.29819 0.41720 2.01899 C
atom 7.30115 0.82882 1.01780 H
atom 1.77977 5.16293 -0.66123 O
atom 1.88391 5.59179 0.64963 C
atom 1.20808 6.39282 0.92055 H
atom 2.84984 4.85337 1.25673 C
atom 3.77772 4.35019 2.35280 C
atom 4.50980 5.07962 2.72270 H
atom 3.28230 3.88254 3.21345 H
atom 4.34761 3.32780 1.28189 C
atom 5.40848 3.46640 1.03621 H
atom 4.17800 2.27075 1.52419 H
atom 3.36155 3.93812 0.29648 C
atom 2.69281 4.14508 -0.86834 C
atom 2.69576 3.73347 -1.86953 H
