lattice_vector 10.693721 0.0 0.0
lattice_vector 0.0 7.969306 0.0
lattice_vector -1.386148 0.0 3.765286
atom 6.13590 5.18717 0.35410 O
atom 7.30299 5.89675 0.57209 C
atom 7.15927 6.91173 0.91987 H
atom 8.35002 5.08289 0.27508 C
atom 9.79023 4.62788 0.08989 C
atom 10.39321 4.58627 1.00613 H
atom 10.35940 5.16317 -0.68107 H
atom 9.19855 3.23124 -0.37509 C
atom 9.46226 2.38440 0.27168 H
atom 9.42451 2.96300 -1.41520 H
atom 7.81968 3.83073 -0.14022 C
atom 6.46461 3.91741 -0.08432 C
atom 5.61874 3.27284 -0.28644 H
atom 3.17167 1.20252 3.41119 O
atom 2.00458 1.91209 3.19320 C
atom 2.14830 2.92708 2.84542 H
atom 0.95756 1.09824 3.49021 C
atom -0.48265 0.64323 3.67540 C
atom -1.08564 0.60162 2.75915 H
atom -1.05183 1.17852 4.44635 H
atom 0.10902 -0.75341 4.14038 C
atom -0.15469 -1.60026 3.49360 H
atom -0.11693 -1.02165 5.18049 H
atom 1.48789 -0.15392 3.90551 C
atom 2.84296 -0.06724 3.84960 C
atom 3.68883 -0.71181 4.05173 H
