lattice_vector 5.481308 0.0 0.0
lattice_vector 0.0 7.705627 0.0
lattice_vector -4.057048 0.0 4.420568
atom -1.27581 3.82134 1.64248 O
atom -0.34465 3.63394 2.64794 C
atom -0.17736 4.49752 3.27884 H
atom 0.11951 2.35991 2.55720 C
atom 0.92946 1.11420 2.88540 C
atom 0.72124 0.66020 3.86282 H
atom 2.01640 1.21298 2.76847 H
atom 0.19347 0.41870 1.66413 C
atom -0.43706 -0.43737 1.93720 H
atom 0.85622 0.11919 0.84200 H
atom -0.54124 1.73620 1.46357 C
atom -1.38921 2.64806 0.91922 C
atom -2.09750 2.68453 0.10141 H
atom -3.30434 3.88429 3.85277 O
atom -2.37318 4.07169 4.85822 C
atom -2.20588 3.20811 5.48912 H
atom -1.90901 5.34572 4.76749 C
atom -1.09906 6.59143 5.09568 C
atom -1.30729 7.04543 6.07310 H
atom -0.01212 6.49265 4.97876 H
atom -1.83505 7.28692 3.87441 C
atom -2.46558 8.14300 4.14748 H
atom -1.17231 7.58644 3.05228 H
atom -2.56977 5.96942 3.67386 C
atom -3.41774 5.05756 3.12951 C
atom -4.12603 5.02110 2.31170 H
