lattice_vector 6.320386 0.0 0.0
lattice_vector 0.0 6.764196 0.0
lattice_vector -0.257963 0.0 3.461776
atom 7.78607 1.89854 0.84433 O
atom 7.05940 0.72677 0.73472 C
atom 7.65673 -0.17085 0.63841 H
atom 5.73933 1.04631 0.78118 C
atom 4.22926 0.85873 0.77665 C
atom 3.82258 0.28619 1.62024 H
atom 3.80534 0.46110 -0.15450 H
atom 4.11961 2.43361 0.93361 C
atom 3.64782 2.76877 1.86639 H
atom 3.63487 2.94389 0.09131 H
atom 5.64117 2.45762 0.92334 C
atom 6.90430 2.95767 0.95950 C
atom 7.37097 3.93003 1.05205 H
atom -1.72364 5.28064 2.61744 O
atom -0.99697 4.10887 2.72705 C
atom -1.59431 3.21125 2.82336 H
atom 0.32309 4.42841 2.68060 C
atom 1.83317 4.24083 2.68512 C
atom 2.23984 3.66829 1.84153 H
atom 2.25708 3.84320 3.61628 H
atom 1.94281 5.81571 2.52817 C
atom 2.41460 6.15087 1.59538 H
atom 2.42756 6.32599 3.37047 H
atom 0.42125 5.83972 2.53844 C
atom -0.84188 6.33977 2.50227 C
atom -1.30854 7.31213 2.40972 H
