lattice_vector 7.089361 0.0 0.0
lattice_vector 0.0 8.885754 0.0
lattice_vector -2.135541 0.0 3.717764
atom 0.77185 -0.63803 2.30448 O
atom 1.91003 0.14233 2.39778 C
atom 2.83577 -0.41263 2.48028 H
atom 1.52878 1.44612 2.35749 C
atom 1.64596 2.96328 2.36098 C
atom 2.18654 3.39654 1.50958 H
atom 2.03704 3.40482 3.28671 H
atom 0.06556 2.99961 2.22718 C
atom -0.30482 3.45571 1.29993 H
atom -0.45432 3.45970 3.07741 H
atom 0.11251 1.47857 2.23609 C
atom -0.32873 0.19356 2.20580 C
atom -1.27957 -0.31780 2.12694 H
atom 1.83962 9.52378 0.44560 O
atom 2.97780 8.74342 0.53890 C
atom 3.90354 9.29839 0.62140 H
atom 2.59655 7.43963 0.49861 C
atom 2.71373 5.92247 0.50210 C
atom 3.25431 5.48922 -0.34930 H
atom 3.10481 5.48093 1.42782 H
atom 1.13333 5.88615 0.36830 C
atom 0.76295 5.43005 -0.55895 H
atom 0.61345 5.42605 1.21852 H
atom 1.18028 7.40718 0.37721 C
atom 0.73904 8.69219 0.34692 C
atom -0.21180 9.20355 0.26806 H
