lattice_vector 6.850278 0.0 0.0
lattice_vector 0.0 8.272174 0.0
lattice_vector -3.196559 0.0 3.342337
atom 5.57810 9.82997 0.80563 O
atom 5.24564 9.22258 -0.39173 C
atom 5.83629 9.54006 -1.24151 H
atom 4.22435 8.35817 -0.15383 C
atom 3.14896 7.31692 -0.42748 C
atom 3.51490 6.33771 -0.76226 H
atom 2.34052 7.63741 -1.09723 H
atom 2.79880 7.39784 1.11775 C
atom 2.96069 6.46491 1.67311 H
atom 1.78921 7.76778 1.33850 H
atom 3.91157 8.42967 1.23133 C
atom 4.75131 9.33561 1.79788 C
atom 4.92741 9.74705 2.78354 H
atom -1.92438 5.69388 2.53671 O
atom -1.59192 5.08649 3.73407 C
atom -2.18257 5.40397 4.58385 H
atom -0.57063 4.22208 3.49617 C
atom 0.50475 3.18083 3.76982 C
atom 0.13882 2.20162 4.10460 H
atom 1.31319 3.50133 4.43957 H
atom 0.85492 3.26176 2.22459 C
atom 0.69303 2.32882 1.66923 H
atom 1.86451 3.63169 2.00384 H
atom -0.25785 4.29358 2.11101 C
atom -1.09759 5.19952 1.54446 C
atom -1.27369 5.61096 0.55880 H
