lattice_vector 5.219147 0.0 0.0
lattice_vector 0.0 5.685829 0.0
lattice_vector -10.721321 0.0 7.980972
atom -2.50727 2.72786 5.82945 O
atom -1.88490 3.52687 4.88745 C
atom -0.83848 3.30398 4.72278 H
atom -2.80421 4.40725 4.41140 C
atom -3.39198 5.54483 3.58922 C
atom -3.41667 5.37895 2.50446 H
atom -2.96526 6.53740 3.78306 H
atom -4.76403 5.25824 4.33234 C
atom -5.58004 4.92943 3.67582 H
atom -5.12657 6.08494 4.95682 H
atom -4.03422 4.14936 5.07638 C
atom -3.82921 3.11912 5.93860 C
atom -4.41301 2.55465 6.65440 H
atom 2.85339 2.95797 1.83897 O
atom 3.47576 2.15896 0.89697 C
atom 4.52218 2.38185 0.73229 H
atom 2.55645 1.27858 0.42091 C
atom 1.96868 0.14100 -0.40127 C
atom 1.94399 0.30687 -1.48603 H
atom 2.39540 -0.85157 -0.20742 H
atom 0.59663 0.42758 0.34185 C
atom -0.21938 0.75640 -0.31466 H
atom 0.23409 -0.39911 0.96633 H
atom 1.32644 1.53646 1.08589 C
atom 1.53145 2.56671 1.94811 C
atom 0.94765 3.13118 2.66391 H
