lattice_vector 19.318624 0.0 0.0
lattice_vector 0.0 4.984525 0.0
lattice_vector -4.188996 0.0 2.675224
atom 4.95083 1.94185 1.39111 O
atom 3.57753 1.95841 1.55504 C
atom 3.18291 1.15444 2.16308 H
atom 3.08721 3.02850 0.87584 C
atom 2.07306 4.01631 0.31791 C
atom 1.53315 4.61106 1.06598 H
atom 1.34565 3.59774 -0.38957 H
atom 3.29962 4.76159 -0.35810 C
atom 3.46534 5.78646 -0.00146 H
atom 3.28040 4.77000 -1.45555 H
atom 4.18670 3.69723 0.27123 C
atom 5.31559 3.01548 0.59939 C
atom 6.37753 3.09831 0.40647 H
atom 10.17880 1.94185 1.28411 O
atom 11.55210 1.95841 1.12018 C
atom 11.94671 1.15444 0.51214 H
atom 12.04242 3.02850 1.79939 C
atom 13.05656 4.01631 2.35731 C
atom 13.59647 4.61106 1.60924 H
atom 13.78397 3.59774 3.06480 H
atom 11.83000 4.76159 3.03333 C
atom 11.66429 5.78646 2.67669 H
atom 11.84924 4.77000 4.13078 H
atom 10.94293 3.69723 2.40400 C
atom 9.81404 3.01548 2.07583 C
atom 8.75209 3.09831 2.26876 H
