lattice_vector 4.08836 0.0 0.0
lattice_vector 0.0 4.952869 0.0
lattice_vector 1.900205 0.0 15.250469
atom 3.23134 4.55814 5.33880 O
atom 3.15877 3.95341 4.09696 C
atom 3.92494 4.26059 3.39667 H
atom 2.09759 3.10449 4.10554 C
atom 1.09244 2.07858 3.60282 C
atom 1.50808 1.09348 3.35449 H
atom 0.45410 2.40960 2.77349 H
atom 0.41533 2.16756 5.03478 C
atom 0.43864 1.23342 5.61083 H
atom -0.61254 2.55265 5.03081 H
atom 1.49169 3.18320 5.38940 C
atom 2.20109 4.07782 6.12647 C
atom 2.16429 4.48852 7.12737 H
atom 4.18144 0.39473 12.96403 O
atom 4.10887 0.99946 11.72220 C
atom 4.87505 0.69228 11.02190 H
atom 3.04769 1.84838 11.73077 C
atom 2.04255 2.87429 11.22806 C
atom 2.45818 3.85938 10.97973 H
atom 1.40420 2.54327 10.39872 H
atom 1.36543 2.78531 12.66002 C
atom 1.38874 3.71946 13.23606 H
atom 0.33756 2.40022 12.65605 H
atom 2.44180 1.76967 13.01464 C
atom 3.15119 0.87505 13.75170 C
atom 3.11440 0.46435 14.75260 H
