lattice_vector 3.46319 0.0 0.0
lattice_vector 0.0 13.46732 0.0
lattice_vector 1.691569 0.0 6.527143
atom 2.71182 4.30923 3.96100 O
atom 2.99191 5.45397 3.23696 C
atom 3.32535 6.29615 3.82971 H
atom 2.75941 5.18736 1.92482 C
atom 2.65893 5.41330 0.42336 C
atom 3.60820 5.62182 -0.08678 H
atom 1.91865 6.15916 0.10631 H
atom 2.16878 3.90822 0.31663 C
atom 2.83416 3.24984 -0.25678 H
atom 1.14469 3.78698 -0.05940 H
atom 2.32154 3.83801 1.82910 C
atom 2.29982 3.32098 3.08570 C
atom 2.05348 2.37510 3.55095 H
atom 2.44293 11.04289 2.56614 O
atom 2.16285 12.18763 3.29018 C
atom 1.82941 13.02981 2.69744 H
atom 2.39535 11.92102 4.60232 C
atom 2.49583 12.14696 6.10378 C
atom 1.54656 12.35548 6.61392 H
atom 3.23611 12.89283 6.42084 H
atom 2.98598 10.64188 6.21052 C
atom 2.32060 9.98350 6.78393 H
atom 4.01007 10.52064 6.58654 H
atom 2.83322 10.57167 4.69805 C
atom 2.85494 10.05464 3.44144 C
atom 3.10127 9.10876 2.97619 H
