lattice_vector 6.170481 0.0 0.0
lattice_vector 0.0 5.604937 0.0
lattice_vector 0.437428 0.0 7.027964
atom 4.50272 2.30148 -0.90692 O
atom 3.26608 1.77694 -0.57724 C
atom 2.46429 2.04434 -1.25357 H
atom 3.41196 1.03927 0.55475 C
atom 3.03769 0.14856 1.73038 C
atom 2.68763 -0.85785 1.46690 H
atom 2.33522 0.58733 2.45071 H
atom 4.56220 0.22518 2.16271 C
atom 5.09019 -0.73716 2.15062 H
atom 4.73842 0.71078 3.13120 H
atom 4.77857 1.10678 0.94132 C
atom 5.42637 1.88363 0.03373 C
atom 6.43540 2.23973 -0.13017 H
atom 4.72144 3.30346 2.60706 O
atom 3.48479 3.82800 2.93674 C
atom 2.68300 3.56059 2.26041 H
atom 3.63067 4.56566 4.06873 C
atom 3.25641 5.45637 5.24436 C
atom 2.90634 6.46278 4.98088 H
atom 2.55393 5.01761 5.96469 H
atom 4.78091 5.37976 5.67669 C
atom 5.30890 6.34209 5.66461 H
atom 4.95714 4.89416 6.64518 H
atom 4.99728 4.49816 4.45530 C
atom 5.64508 3.72130 3.54771 C
atom 6.65412 3.36521 3.38381 H
