title geometry
lattice_vector 12.255252 0.000000 0.000000
lattice_vector 0.000000 6.886029 0.000000
lattice_vector -0.673152 0.000000 3.557580
-150.245983 -46.171388 154.139544 2.100614 6.742610 1.780795 /home/trose/genarris_mpi4py/merged_4_17_2019/tests/full_diverse_workflow/harris_single_molecule_prep_aims_dir/geometry
-29.754040 -133.828797 -25.860433 9.481487 3.299595 1.776776 /home/trose/genarris_mpi4py/merged_4_17_2019/tests/full_diverse_workflow/harris_single_molecule_prep_aims_dir/geometry
