lattice_vector 3.432395 0.0 0.0
lattice_vector 0.0 12.810985 0.0
lattice_vector 7.356156 0.0 5.849901
atom 9.64835 11.76718 4.59027 O
atom 8.85049 10.99245 3.76788 C
atom 8.56192 11.46569 2.83806 H
atom 8.64389 9.80021 4.38652 C
atom 8.12488 8.38857 4.61768 C
atom 8.49137 7.63017 3.91387 H
atom 7.03442 8.29364 4.69981 H
atom 8.89182 8.42641 6.00594 C
atom 9.69870 7.68852 6.10323 H
atom 8.24278 8.35609 6.88835 H
atom 9.33249 9.83365 5.63004 C
atom 9.93906 11.04535 5.73351 C
atom 10.56315 11.56215 6.45133 H
atom 9.64835 1.04381 4.59027 O
atom 8.85049 1.81853 3.76788 C
atom 8.56192 1.34529 2.83806 H
atom 8.64389 3.01077 4.38652 C
atom 8.12488 4.42241 4.61768 C
atom 8.49137 5.18081 3.91387 H
atom 7.03442 4.51734 4.69981 H
atom 8.89182 4.38458 6.00594 C
atom 9.69870 5.12246 6.10323 H
atom 8.24278 4.45489 6.88835 H
atom 9.33249 2.97733 5.63004 C
atom 9.93906 1.76563 5.73351 C
atom 10.56315 1.24883 6.45133 H
