lattice_vector 7.010324 0.0 0.0
lattice_vector 0.0 9.661512 0.0
lattice_vector -4.116443 0.0 3.237127
atom -2.32219 8.94208 3.08250 O
atom -3.07821 8.40882 2.05430 C
atom -3.03613 8.96256 1.12511 H
atom -3.68906 7.28810 2.52087 C
atom -4.56188 6.04163 2.52762 C
atom -4.23752 5.23510 1.85744 H
atom -5.63483 6.21533 2.37443 H
atom -4.13214 5.85365 4.04317 C
atom -3.56218 4.93791 4.24698 H
atom -4.95737 5.92188 4.76371 H
atom -3.30270 7.11889 3.87871 C
atom -2.46738 8.14135 4.20066 C
atom -1.91330 8.47010 5.07058 H
atom -0.26397 0.71943 1.46393 O
atom -1.01998 1.25270 0.43574 C
atom -0.97791 0.69895 -0.49345 H
atom -1.63084 2.37341 0.90231 C
atom -2.50365 3.61988 0.90905 C
atom -2.17930 4.42641 0.23888 H
atom -3.57661 3.44618 0.75587 H
atom -2.07392 3.80786 2.42460 C
atom -1.50395 4.72361 2.62842 H
atom -2.89915 3.73963 3.14515 H
atom -1.24448 2.54263 2.26014 C
atom -0.40916 1.52016 2.58210 C
atom 0.14492 1.19141 3.45201 H
