lattice_vector 5.188842 0.0 0.0
lattice_vector 0.0 12.408775 0.0
lattice_vector -3.983132 0.0 4.962338
atom 1.71525 4.60585 3.38290 O
atom 0.42016 4.20809 3.10422 C
atom -0.00197 4.63430 2.20314 H
atom 0.02363 3.35472 4.08470 C
atom -0.87285 2.40977 4.87143 C
atom -1.15156 1.48320 4.35315 H
atom -1.77916 2.86145 5.29504 H
atom 0.33041 2.25787 5.89416 C
atom 0.74371 1.24355 5.96709 H
atom 0.11827 2.62475 6.90670 H
atom 1.10260 3.21749 5.00046 C
atom 2.12579 3.99116 4.55173 C
atom 3.13320 4.23476 4.86416 H
atom 1.71525 7.80293 3.38290 O
atom 0.42016 8.20068 3.10422 C
atom -0.00197 7.77447 2.20314 H
atom 0.02363 9.05406 4.08470 C
atom -0.87285 9.99900 4.87143 C
atom -1.15156 10.92558 4.35315 H
atom -1.77916 9.54733 5.29504 H
atom 0.33041 10.15090 5.89416 C
atom 0.74371 11.16523 5.96709 H
atom 0.11827 9.78403 6.90670 H
atom 1.10260 9.19129 5.00046 C
atom 2.12579 8.41761 4.55173 C
atom 3.13320 8.17401 4.86416 H
