lattice_vector 8.592129 0.0 0.0
lattice_vector 0.0 3.251302 0.0
lattice_vector 12.935966 0.0 9.272521
atom 10.50152 1.84608 1.64583 O
atom 9.55595 2.50900 0.88454 C
atom 9.85530 2.71207 -0.13573 H
atom 8.46690 2.72886 1.66714 C
atom 7.07986 3.20477 2.07355 C
atom 6.24400 2.72624 1.54708 H
atom 6.92949 4.29194 2.05628 H
atom 7.38780 2.60247 3.50858 C
atom 6.72820 1.77849 3.81019 H
atom 7.41767 3.34326 4.31801 H
atom 8.74240 2.18773 2.95280 C
atom 9.99148 1.65353 2.91679 C
atom 10.65513 1.13931 3.60013 H
atom 11.02658 1.84608 7.62669 O
atom 11.97214 2.50900 8.38798 C
atom 11.67279 2.71207 9.40825 H
atom 13.06119 2.72886 7.60538 C
atom 14.44823 3.20477 7.19897 C
atom 15.28410 2.72624 7.72544 H
atom 14.59860 4.29194 7.21624 H
atom 14.14029 2.60247 5.76394 C
atom 14.79990 1.77849 5.46233 H
atom 14.11043 3.34326 4.95451 H
atom 12.78570 2.18773 6.31972 C
atom 11.53662 1.65353 6.35574 C
atom 10.87297 1.13931 5.67239 H
