lattice_vector 10.946884 0.0 0.0
lattice_vector 0.0 9.613393 0.0
lattice_vector 3.151467 0.0 2.825236
atom 4.86739 3.67542 1.79249 O
atom 5.33975 2.48673 1.26617 C
atom 6.41725 2.42253 1.18445 H
atom 4.26939 1.69726 0.98707 C
atom 3.48073 0.48540 0.51279 C
atom 3.64518 -0.43738 1.08398 H
atom 3.56538 0.25584 -0.55726 H
atom 2.17227 1.28695 0.91570 C
atom 1.58143 0.82519 1.71737 H
atom 1.50414 1.52179 0.07708 H
atom 3.09683 2.41513 1.34958 C
atom 3.48629 3.62152 1.83928 C
atom 3.00976 4.50787 2.23818 H
atom 9.23096 8.48212 1.03274 O
atom 8.75860 7.29343 1.55906 C
atom 7.68110 7.22923 1.64078 H
atom 9.82896 6.50396 1.83816 C
atom 10.61762 5.29210 2.31245 C
atom 10.45317 4.36932 1.74125 H
atom 10.53297 5.06254 3.38249 H
atom 11.92608 6.09365 1.90954 C
atom 12.51692 5.63189 1.10786 H
atom 12.59422 6.32848 2.74816 H
atom 11.00152 7.22183 1.47566 C
atom 10.61206 8.42821 0.98596 C
atom 11.08859 9.31456 0.58706 H
