#************************************************************************************
#*                  Generated by cif2cell 1.2.10 2019-02-26 23:13                   *
#*  T. Bjorkman, Comp. Phys. Commun. 182, 1183-1186 (2011). Please cite generously. *
#*                                                                                  *
#*                                         ()                                       *
#*             Failed to get author information, No journal information             *
#************************************************************************************

lattice_vector   66.551800000000000   0.000000000000000   0.000000000000000 
lattice_vector    0.000000000000000  13.920199999999999   0.000000000000000 
lattice_vector    0.000000000000000   0.000000000000000  14.051800000000000 
atom_frac    0.310300000000000   0.055290000000000   0.675210000000000  C
atom_frac    0.310300000000000   0.555290000000000   0.675210000000000  C
atom_frac    0.310500000000000   0.097170000000000   0.411980000000000  C
atom_frac    0.310500000000000   0.597170000000000   0.411980000000000  C
atom_frac    0.320640000000000   0.018820000000000   0.366220000000000  C
atom_frac    0.320640000000000   0.518820000000000   0.366220000000000  C
atom_frac    0.321140000000000   0.074090000000000   0.950060000000000  C
atom_frac    0.321140000000000   0.574090000000000   0.950060000000000  C
atom_frac    0.343010000000000   0.068520000000000   0.925520000000000  C
atom_frac    0.343010000000000   0.568520000000000   0.925520000000000  C
atom_frac    0.349150000000000   0.011620000000000   0.848480000000000  C
atom_frac    0.349150000000000   0.511620000000000   0.848480000000000  C
atom_frac    0.357450000000000   0.124230000000000   0.470790000000000  C
atom_frac    0.357450000000000   0.624230000000000   0.470790000000000  C
atom_frac    0.369130000000000   0.010760000000000   0.817980000000000  C
atom_frac    0.369130000000000   0.510760000000000   0.817980000000000  C
atom_frac    0.377330000000000   0.123410000000000   0.439430000000000  C
atom_frac    0.377330000000000   0.623410000000000   0.439430000000000  C
atom_frac    0.383330000000000   0.068730000000000   0.863350000000000  C
atom_frac    0.383330000000000   0.568730000000000   0.863350000000000  C
atom_frac    0.109460000000000   0.305290000000000   0.675210000000000  C
atom_frac    0.109460000000000   0.805290000000000   0.675210000000000  C
atom_frac    0.109670000000000   0.347170000000000   0.411980000000000  C
atom_frac    0.109670000000000   0.847170000000000   0.411980000000000  C
atom_frac    0.119810000000000   0.268820000000000   0.366220000000000  C
atom_frac    0.119810000000000   0.768820000000000   0.366220000000000  C
atom_frac    0.120300000000000   0.324090000000000   0.950060000000000  C
atom_frac    0.120300000000000   0.824090000000000   0.950060000000000  C
atom_frac    0.142180000000000   0.318520000000000   0.925520000000000  C
atom_frac    0.142180000000000   0.818520000000000   0.925520000000000  C
atom_frac    0.148320000000000   0.261620000000000   0.848480000000000  C
atom_frac    0.148320000000000   0.761620000000000   0.848480000000000  C
atom_frac    0.156620000000000   0.374230000000000   0.470790000000000  C
atom_frac    0.156620000000000   0.874230000000000   0.470790000000000  C
atom_frac    0.168300000000000   0.260760000000000   0.817980000000000  C
atom_frac    0.168300000000000   0.760760000000000   0.817980000000000  C
atom_frac    0.176500000000000   0.373410000000000   0.439430000000000  C
atom_frac    0.176500000000000   0.873410000000000   0.439430000000000  C
atom_frac    0.182500000000000   0.318730000000000   0.863350000000000  C
atom_frac    0.182500000000000   0.818730000000000   0.863350000000000  C
atom_frac    0.289500000000000   0.194710000000000   0.175210000000000  C
atom_frac    0.289500000000000   0.694710000000000   0.175210000000000  C
atom_frac    0.289300000000000   0.152830000000000   0.911980000000000  C
atom_frac    0.289300000000000   0.652830000000000   0.911980000000000  C
atom_frac    0.279160000000000   0.231180000000000   0.866025403784439  C
atom_frac    0.279160000000000   0.731180000000000   0.866025403784439  C
atom_frac    0.278660000000000   0.175910000000000   0.450060000000000  C
atom_frac    0.278660000000000   0.675910000000000   0.450060000000000  C
atom_frac    0.256790000000000   0.181480000000000   0.425520000000000  C
atom_frac    0.256790000000000   0.681480000000000   0.425520000000000  C
atom_frac    0.250650000000000   0.238380000000000   0.348480000000000  C
atom_frac    0.250650000000000   0.738380000000000   0.348480000000000  C
atom_frac    0.242350000000000   0.125770000000000   0.970790000000000  C
atom_frac    0.242350000000000   0.625770000000000   0.970790000000000  C
atom_frac    0.230670000000000   0.239240000000000   0.317980000000000  C
atom_frac    0.230670000000000   0.739240000000000   0.317980000000000  C
atom_frac    0.222470000000000   0.126590000000000   0.939430000000000  C
atom_frac    0.222470000000000   0.626590000000000   0.939430000000000  C
atom_frac    0.216470000000000   0.181270000000000   0.363350000000000  C
atom_frac    0.216470000000000   0.681270000000000   0.363350000000000  C
atom_frac    0.088670000000000   0.444710000000000   0.175210000000000  C
atom_frac    0.088670000000000   0.944710000000000   0.175210000000000  C
atom_frac    0.088460000000000   0.402830000000000   0.911980000000000  C
atom_frac    0.088460000000000   0.902830000000000   0.911980000000000  C
atom_frac    0.078320000000000   0.481180000000000   0.866025403784439  C
atom_frac    0.078320000000000   0.981180000000000   0.866025403784439  C
atom_frac    0.077830000000000   0.425910000000000   0.450060000000000  C
atom_frac    0.077830000000000   0.925910000000000   0.450060000000000  C
atom_frac    0.055950000000000   0.431480000000000   0.425520000000000  C
atom_frac    0.055950000000000   0.931480000000000   0.425520000000000  C
atom_frac    0.049810000000000   0.488380000000000   0.348480000000000  C
atom_frac    0.049810000000000   0.988380000000000   0.348480000000000  C
atom_frac    0.041510000000000   0.375770000000000   0.970790000000000  C
atom_frac    0.041510000000000   0.875770000000000   0.970790000000000  C
atom_frac    0.029830000000000   0.489240000000000   0.317980000000000  C
atom_frac    0.029830000000000   0.989240000000000   0.317980000000000  C
atom_frac    0.021630000000000   0.376590000000000   0.939430000000000  C
atom_frac    0.021630000000000   0.876590000000000   0.939430000000000  C
atom_frac    0.015630000000000   0.431260000000000   0.363350000000000  C
atom_frac    0.015630000000000   0.931270000000000   0.363350000000000  C
atom_frac    0.289500000000000   0.305290000000000   0.824790000000000  C
atom_frac    0.289500000000000   0.805290000000000   0.824790000000000  C
atom_frac    0.289300000000000   0.347170000000000   0.088020000000000  C
atom_frac    0.289300000000000   0.847170000000000   0.088020000000000  C
atom_frac    0.279160000000000   0.268820000000000   0.133780000000000  C
atom_frac    0.279160000000000   0.768820000000000   0.133780000000000  C
atom_frac    0.278660000000000   0.324090000000000   0.549940000000000  C
atom_frac    0.278660000000000   0.824090000000000   0.549940000000000  C
atom_frac    0.256790000000000   0.318520000000000   0.574480000000000  C
atom_frac    0.256790000000000   0.818520000000000   0.574480000000000  C
atom_frac    0.250650000000000   0.261620000000000   0.651520000000000  C
atom_frac    0.250650000000000   0.761620000000000   0.651520000000000  C
atom_frac    0.242350000000000   0.374230000000000   0.029210000000000  C
atom_frac    0.242350000000000   0.874230000000000   0.029210000000000  C
atom_frac    0.230670000000000   0.260760000000000   0.682020000000000  C
atom_frac    0.230670000000000   0.760760000000000   0.682020000000000  C
atom_frac    0.222470000000000   0.373410000000000   0.060570000000000  C
atom_frac    0.222470000000000   0.873410000000000   0.060570000000000  C
atom_frac    0.216470000000000   0.318730000000000   0.636650000000000  C
atom_frac    0.216470000000000   0.818730000000000   0.636650000000000  C
atom_frac    0.088670000000000   0.055290000000000   0.824790000000000  C
atom_frac    0.088670000000000   0.555290000000000   0.824790000000000  C
atom_frac    0.088460000000000   0.097170000000000   0.088020000000000  C
atom_frac    0.088460000000000   0.597170000000000   0.088020000000000  C
atom_frac    0.078320000000000   0.018820000000000   0.133780000000000  C
atom_frac    0.078320000000000   0.518820000000000   0.133780000000000  C
atom_frac    0.077830000000000   0.074090000000000   0.549940000000000  C
atom_frac    0.077830000000000   0.574090000000000   0.549940000000000  C
atom_frac    0.055950000000000   0.068520000000000   0.574480000000000  C
atom_frac    0.055950000000000   0.568520000000000   0.574480000000000  C
atom_frac    0.049810000000000   0.011620000000000   0.651520000000000  C
atom_frac    0.049810000000000   0.511620000000000   0.651520000000000  C
atom_frac    0.041510000000000   0.124230000000000   0.029210000000000  C
atom_frac    0.041510000000000   0.624230000000000   0.029210000000000  C
atom_frac    0.029830000000000   0.010760000000000   0.682020000000000  C
atom_frac    0.029830000000000   0.510760000000000   0.682020000000000  C
atom_frac    0.021630000000000   0.123410000000000   0.060570000000000  C
atom_frac    0.021630000000000   0.623410000000000   0.060570000000000  C
atom_frac    0.015630000000000   0.068730000000000   0.636650000000000  C
atom_frac    0.015630000000000   0.568730000000000   0.636650000000000  C
atom_frac    0.310300000000000   0.444710000000000   0.324790000000000  C
atom_frac    0.310300000000000   0.944710000000000   0.324790000000000  C
atom_frac    0.310500000000000   0.402830000000000   0.588020000000000  C
atom_frac    0.310500000000000   0.902830000000000   0.588020000000000  C
atom_frac    0.320640000000000   0.481180000000000   0.633780000000000  C
atom_frac    0.320640000000000   0.981180000000000   0.633780000000000  C
atom_frac    0.321140000000000   0.425910000000000   0.049940000000000  C
atom_frac    0.321140000000000   0.925910000000000   0.049940000000000  C
atom_frac    0.343010000000000   0.431480000000000   0.074480000000000  C
atom_frac    0.343010000000000   0.931480000000000   0.074480000000000  C
atom_frac    0.349150000000000   0.488380000000000   0.151520000000000  C
atom_frac    0.349150000000000   0.988380000000000   0.151520000000000  C
atom_frac    0.357450000000000   0.375770000000000   0.529210000000000  C
atom_frac    0.357450000000000   0.875770000000000   0.529210000000000  C
atom_frac    0.369130000000000   0.489240000000000   0.182020000000000  C
atom_frac    0.369130000000000   0.989240000000000   0.182020000000000  C
atom_frac    0.377330000000000   0.376590000000000   0.560570000000000  C
atom_frac    0.377330000000000   0.876590000000000   0.560570000000000  C
atom_frac    0.383330000000000   0.431260000000000   0.136650000000000  C
atom_frac    0.383330000000000   0.931270000000000   0.136650000000000  C
atom_frac    0.109460000000000   0.194710000000000   0.324790000000000  C
atom_frac    0.109460000000000   0.694710000000000   0.324790000000000  C
atom_frac    0.109670000000000   0.152830000000000   0.588020000000000  C
atom_frac    0.109670000000000   0.652830000000000   0.588020000000000  C
atom_frac    0.119810000000000   0.231180000000000   0.633780000000000  C
atom_frac    0.119810000000000   0.731180000000000   0.633780000000000  C
atom_frac    0.120300000000000   0.175910000000000   0.049940000000000  C
atom_frac    0.120300000000000   0.675910000000000   0.049940000000000  C
atom_frac    0.142180000000000   0.181480000000000   0.074480000000000  C
atom_frac    0.142180000000000   0.681480000000000   0.074480000000000  C
atom_frac    0.148320000000000   0.238380000000000   0.151520000000000  C
atom_frac    0.148320000000000   0.738380000000000   0.151520000000000  C
atom_frac    0.156620000000000   0.125770000000000   0.529210000000000  C
atom_frac    0.156620000000000   0.625770000000000   0.529210000000000  C
atom_frac    0.168300000000000   0.239240000000000   0.182020000000000  C
atom_frac    0.168300000000000   0.739240000000000   0.182020000000000  C
atom_frac    0.176500000000000   0.126590000000000   0.560570000000000  C
atom_frac    0.176500000000000   0.626590000000000   0.560570000000000  C
atom_frac    0.182500000000000   0.181270000000000   0.136650000000000  C
atom_frac    0.182500000000000   0.681270000000000   0.136650000000000  C
atom_frac    0.289500000000000   0.444710000000000   0.324790000000000  C
atom_frac    0.289500000000000   0.944710000000000   0.324790000000000  C
atom_frac    0.289300000000000   0.402830000000000   0.588020000000000  C
atom_frac    0.289300000000000   0.902830000000000   0.588020000000000  C
atom_frac    0.279160000000000   0.481180000000000   0.633780000000000  C
atom_frac    0.279160000000000   0.981180000000000   0.633780000000000  C
atom_frac    0.278660000000000   0.425910000000000   0.049940000000000  C
atom_frac    0.278660000000000   0.925910000000000   0.049940000000000  C
atom_frac    0.256790000000000   0.431480000000000   0.074480000000000  C
atom_frac    0.256790000000000   0.931480000000000   0.074480000000000  C
atom_frac    0.250650000000000   0.488380000000000   0.151520000000000  C
atom_frac    0.250650000000000   0.988380000000000   0.151520000000000  C
atom_frac    0.242350000000000   0.375770000000000   0.529210000000000  C
atom_frac    0.242350000000000   0.875770000000000   0.529210000000000  C
atom_frac    0.230670000000000   0.489240000000000   0.182020000000000  C
atom_frac    0.230670000000000   0.989240000000000   0.182020000000000  C
atom_frac    0.222470000000000   0.376590000000000   0.560570000000000  C
atom_frac    0.222470000000000   0.876590000000000   0.560570000000000  C
atom_frac    0.216470000000000   0.431260000000000   0.136650000000000  C
atom_frac    0.216470000000000   0.931270000000000   0.136650000000000  C
atom_frac    0.088670000000000   0.194710000000000   0.324790000000000  C
atom_frac    0.088670000000000   0.694710000000000   0.324790000000000  C
atom_frac    0.088460000000000   0.152830000000000   0.588020000000000  C
atom_frac    0.088460000000000   0.652830000000000   0.588020000000000  C
atom_frac    0.078320000000000   0.231180000000000   0.633780000000000  C
atom_frac    0.078320000000000   0.731180000000000   0.633780000000000  C
atom_frac    0.077830000000000   0.175910000000000   0.049940000000000  C
atom_frac    0.077830000000000   0.675910000000000   0.049940000000000  C
atom_frac    0.055950000000000   0.181480000000000   0.074480000000000  C
atom_frac    0.055950000000000   0.681480000000000   0.074480000000000  C
atom_frac    0.049810000000000   0.238380000000000   0.151520000000000  C
atom_frac    0.049810000000000   0.738380000000000   0.151520000000000  C
atom_frac    0.041510000000000   0.125770000000000   0.529210000000000  C
atom_frac    0.041510000000000   0.625770000000000   0.529210000000000  C
atom_frac    0.029830000000000   0.239240000000000   0.182020000000000  C
atom_frac    0.029830000000000   0.739240000000000   0.182020000000000  C
atom_frac    0.021630000000000   0.126590000000000   0.560570000000000  C
atom_frac    0.021630000000000   0.626590000000000   0.560570000000000  C
atom_frac    0.015630000000000   0.181270000000000   0.136650000000000  C
atom_frac    0.015630000000000   0.681270000000000   0.136650000000000  C
atom_frac    0.310300000000000   0.305290000000000   0.824790000000000  C
atom_frac    0.310300000000000   0.805290000000000   0.824790000000000  C
atom_frac    0.310500000000000   0.347170000000000   0.088020000000000  C
atom_frac    0.310500000000000   0.847170000000000   0.088020000000000  C
atom_frac    0.320640000000000   0.268820000000000   0.133780000000000  C
atom_frac    0.320640000000000   0.768820000000000   0.133780000000000  C
atom_frac    0.321140000000000   0.324090000000000   0.549940000000000  C
atom_frac    0.321140000000000   0.824090000000000   0.549940000000000  C
atom_frac    0.343010000000000   0.318520000000000   0.574480000000000  C
atom_frac    0.343010000000000   0.818520000000000   0.574480000000000  C
atom_frac    0.349150000000000   0.261620000000000   0.651520000000000  C
atom_frac    0.349150000000000   0.761620000000000   0.651520000000000  C
atom_frac    0.357450000000000   0.374230000000000   0.029210000000000  C
atom_frac    0.357450000000000   0.874230000000000   0.029210000000000  C
atom_frac    0.369130000000000   0.260760000000000   0.682020000000000  C
atom_frac    0.369130000000000   0.760760000000000   0.682020000000000  C
atom_frac    0.377330000000000   0.373410000000000   0.060570000000000  C
atom_frac    0.377330000000000   0.873410000000000   0.060570000000000  C
atom_frac    0.383330000000000   0.318730000000000   0.636650000000000  C
atom_frac    0.383330000000000   0.818730000000000   0.636650000000000  C
atom_frac    0.109460000000000   0.055290000000000   0.824790000000000  C
atom_frac    0.109460000000000   0.555290000000000   0.824790000000000  C
atom_frac    0.109670000000000   0.097170000000000   0.088020000000000  C
atom_frac    0.109670000000000   0.597170000000000   0.088020000000000  C
atom_frac    0.119810000000000   0.018820000000000   0.133780000000000  C
atom_frac    0.119810000000000   0.518820000000000   0.133780000000000  C
atom_frac    0.120300000000000   0.074090000000000   0.549940000000000  C
atom_frac    0.120300000000000   0.574090000000000   0.549940000000000  C
atom_frac    0.142180000000000   0.068520000000000   0.574480000000000  C
atom_frac    0.142180000000000   0.568520000000000   0.574480000000000  C
atom_frac    0.148320000000000   0.011620000000000   0.651520000000000  C
atom_frac    0.148320000000000   0.511620000000000   0.651520000000000  C
atom_frac    0.156620000000000   0.124230000000000   0.029210000000000  C
atom_frac    0.156620000000000   0.624230000000000   0.029210000000000  C
atom_frac    0.168300000000000   0.010760000000000   0.682020000000000  C
atom_frac    0.168300000000000   0.510760000000000   0.682020000000000  C
atom_frac    0.176500000000000   0.123410000000000   0.060570000000000  C
atom_frac    0.176500000000000   0.623410000000000   0.060570000000000  C
atom_frac    0.182500000000000   0.068730000000000   0.636650000000000  C
atom_frac    0.182500000000000   0.568730000000000   0.636650000000000  C
atom_frac    0.310300000000000   0.194710000000000   0.175210000000000  C
atom_frac    0.310300000000000   0.694710000000000   0.175210000000000  C
atom_frac    0.310500000000000   0.152830000000000   0.911980000000000  C
atom_frac    0.310500000000000   0.652830000000000   0.911980000000000  C
atom_frac    0.320640000000000   0.231180000000000   0.866025403784439  C
atom_frac    0.320640000000000   0.731180000000000   0.866025403784439  C
atom_frac    0.321140000000000   0.175910000000000   0.450060000000000  C
atom_frac    0.321140000000000   0.675910000000000   0.450060000000000  C
atom_frac    0.343010000000000   0.181480000000000   0.425520000000000  C
atom_frac    0.343010000000000   0.681480000000000   0.425520000000000  C
atom_frac    0.349150000000000   0.238380000000000   0.348480000000000  C
atom_frac    0.349150000000000   0.738380000000000   0.348480000000000  C
atom_frac    0.357450000000000   0.125770000000000   0.970790000000000  C
atom_frac    0.357450000000000   0.625770000000000   0.970790000000000  C
atom_frac    0.369130000000000   0.239240000000000   0.317980000000000  C
atom_frac    0.369130000000000   0.739240000000000   0.317980000000000  C
atom_frac    0.377330000000000   0.126590000000000   0.939430000000000  C
atom_frac    0.377330000000000   0.626590000000000   0.939430000000000  C
atom_frac    0.383330000000000   0.181270000000000   0.363350000000000  C
atom_frac    0.383330000000000   0.681270000000000   0.363350000000000  C
atom_frac    0.109460000000000   0.444710000000000   0.175210000000000  C
atom_frac    0.109460000000000   0.944710000000000   0.175210000000000  C
atom_frac    0.109670000000000   0.402830000000000   0.911980000000000  C
atom_frac    0.109670000000000   0.902830000000000   0.911980000000000  C
atom_frac    0.119810000000000   0.481180000000000   0.866025403784439  C
atom_frac    0.119810000000000   0.981180000000000   0.866025403784439  C
atom_frac    0.120300000000000   0.425910000000000   0.450060000000000  C
atom_frac    0.120300000000000   0.925910000000000   0.450060000000000  C
atom_frac    0.142180000000000   0.431480000000000   0.425520000000000  C
atom_frac    0.142180000000000   0.931480000000000   0.425520000000000  C
atom_frac    0.148320000000000   0.488380000000000   0.348480000000000  C
atom_frac    0.148320000000000   0.988380000000000   0.348480000000000  C
atom_frac    0.156620000000000   0.375770000000000   0.970790000000000  C
atom_frac    0.156620000000000   0.875770000000000   0.970790000000000  C
atom_frac    0.168300000000000   0.489240000000000   0.317980000000000  C
atom_frac    0.168300000000000   0.989240000000000   0.317980000000000  C
atom_frac    0.176500000000000   0.376590000000000   0.939430000000000  C
atom_frac    0.176500000000000   0.876590000000000   0.939430000000000  C
atom_frac    0.182500000000000   0.431260000000000   0.363350000000000  C
atom_frac    0.182500000000000   0.931270000000000   0.363350000000000  C
atom_frac    0.289500000000000   0.055290000000000   0.675210000000000  C
atom_frac    0.289500000000000   0.555290000000000   0.675210000000000  C
atom_frac    0.289300000000000   0.097170000000000   0.411980000000000  C
atom_frac    0.289300000000000   0.597170000000000   0.411980000000000  C
atom_frac    0.279160000000000   0.018820000000000   0.366220000000000  C
atom_frac    0.279160000000000   0.518820000000000   0.366220000000000  C
atom_frac    0.278660000000000   0.074090000000000   0.950060000000000  C
atom_frac    0.278660000000000   0.574090000000000   0.950060000000000  C
atom_frac    0.256790000000000   0.068520000000000   0.925520000000000  C
atom_frac    0.256790000000000   0.568520000000000   0.925520000000000  C
atom_frac    0.250650000000000   0.011620000000000   0.848480000000000  C
atom_frac    0.250650000000000   0.511620000000000   0.848480000000000  C
atom_frac    0.242350000000000   0.124230000000000   0.470790000000000  C
atom_frac    0.242350000000000   0.624230000000000   0.470790000000000  C
atom_frac    0.230670000000000   0.010760000000000   0.817980000000000  C
atom_frac    0.230670000000000   0.510760000000000   0.817980000000000  C
atom_frac    0.222470000000000   0.123410000000000   0.439430000000000  C
atom_frac    0.222470000000000   0.623410000000000   0.439430000000000  C
atom_frac    0.216470000000000   0.068730000000000   0.863350000000000  C
atom_frac    0.216470000000000   0.568730000000000   0.863350000000000  C
atom_frac    0.088670000000000   0.305290000000000   0.675210000000000  C
atom_frac    0.088670000000000   0.805290000000000   0.675210000000000  C
atom_frac    0.088460000000000   0.347170000000000   0.411980000000000  C
atom_frac    0.088460000000000   0.847170000000000   0.411980000000000  C
atom_frac    0.078320000000000   0.268820000000000   0.366220000000000  C
atom_frac    0.078320000000000   0.768820000000000   0.366220000000000  C
atom_frac    0.077830000000000   0.324090000000000   0.950060000000000  C
atom_frac    0.077830000000000   0.824090000000000   0.950060000000000  C
atom_frac    0.055950000000000   0.318520000000000   0.925520000000000  C
atom_frac    0.055950000000000   0.818520000000000   0.925520000000000  C
atom_frac    0.049810000000000   0.261620000000000   0.848480000000000  C
atom_frac    0.049810000000000   0.761620000000000   0.848480000000000  C
atom_frac    0.041510000000000   0.374230000000000   0.470790000000000  C
atom_frac    0.041510000000000   0.874230000000000   0.470790000000000  C
atom_frac    0.029830000000000   0.260760000000000   0.817980000000000  C
atom_frac    0.029830000000000   0.760760000000000   0.817980000000000  C
atom_frac    0.021630000000000   0.373410000000000   0.439430000000000  C
atom_frac    0.021630000000000   0.873410000000000   0.439430000000000  C
atom_frac    0.015630000000000   0.318730000000000   0.863350000000000  C
atom_frac    0.015630000000000   0.818730000000000   0.863350000000000  C
atom_frac    0.310700000000000   0.000000000000000   0.000000000000000  C
atom_frac    0.310700000000000   0.500000000000000   0.000000000000000  C
atom_frac    0.109870000000000   0.250000000000000   0.000000000000000  C
atom_frac    0.109870000000000   0.750000000000000   0.000000000000000  C
atom_frac    0.289100000000000   0.250000000000000   0.500000000000000  C
atom_frac    0.289100000000000   0.750000000000000   0.500000000000000  C
atom_frac    0.088260000000000   0.000000000000000   0.500000000000000  C
atom_frac    0.088260000000000   0.500000000000000   0.500000000000000  C
atom_frac    0.289100000000000   0.000000000000000   0.000000000000000  C
atom_frac    0.289100000000000   0.500000000000000   0.000000000000000  C
atom_frac    0.088260000000000   0.250000000000000   0.000000000000000  C
atom_frac    0.088260000000000   0.750000000000000   0.000000000000000  C
atom_frac    0.310700000000000   0.250000000000000   0.500000000000000  C
atom_frac    0.310700000000000   0.750000000000000   0.500000000000000  C
atom_frac    0.109870000000000   0.000000000000000   0.500000000000000  C
atom_frac    0.109870000000000   0.500000000000000   0.500000000000000  C
atom_frac    0.464290000000000   0.226210000000000   0.112790000000000  C
atom_frac    0.456800000000000   0.251880000000000   0.024050000000000  C
atom_frac    0.484620000000000   0.190770000000000   0.121580000000000  C
atom_frac    0.451810000000000   0.173240000000000   0.178680000000000  C
atom_frac    0.469350000000000   0.243170000000000   0.940500000000000  C
atom_frac    0.436540000000000   0.225630000000000   0.997590000000000  C
atom_frac    0.496690000000000   0.182400000000000   0.041300000000000  C
atom_frac    0.464430000000000   0.105070000000000   0.228200000000000  C
atom_frac    0.456850000000000   0.211550000000000   0.862420000000000  C
atom_frac    0.432330000000000   0.148010000000000   0.153260000000000  C
atom_frac    0.412330000000000   0.440030000000000   0.420930000000000  C
atom_frac    0.412330000000000   0.402630000000000   0.512610000000000  C
atom_frac    0.424970000000000   0.397700000000000   0.348500000000000  C
atom_frac    0.412210000000000   0.542890000000000   0.406640000000000  C
atom_frac    0.424970000000000   0.321370000000000   0.535560000000000  C
atom_frac    0.412210000000000   0.466550000000000   0.593710000000000  C
atom_frac    0.437110000000000   0.319620000000000   0.370550000000000  C
atom_frac    0.424770000000000   0.564140000000000   0.325350000000000  C
atom_frac    0.432650000000000   0.335070000000000   0.630850000000000  C
atom_frac    0.412090000000000   0.604330000000000   0.484570000000000  C
atom_frac    0.489230000000000   0.941200000000000   0.204260000000000  C
atom_frac    0.469740000000000   0.930780000000000   0.238160000000000  C
atom_frac    0.496860000000000   0.035610000000000   0.181180000000000  C
atom_frac    0.497060000000000   0.874150000000000   0.134970000000000  C
atom_frac    0.457090000000000   0.014350000000000   0.250370000000000  C
atom_frac    0.457280000000000   0.852890000000000   0.204160000000000  C
atom_frac    0.484720000000000   0.115910000000000   0.192910000000000  C
atom_frac    0.509540000000000   0.927120000000000   0.069070000000000  C
atom_frac    0.436830000000000   0.988110000000000   0.223930000000000  C
atom_frac    0.485090000000000   0.799300000000000   0.102290000000000  C
atom_frac    0.464620000000000   0.555200000000000   0.254530000000000  C
atom_frac    0.457040000000000   0.641430000000000   0.289070000000000  C
atom_frac    0.452180000000000   0.470030000000000   0.254720000000000  C
atom_frac    0.484940000000000   0.526580000000000   0.277380000000000  C
atom_frac    0.436720000000000   0.645990000000000   0.325190000000000  C
atom_frac    0.469480000000000   0.702550000000000   0.347850000000000  C
atom_frac    0.432660000000000   0.474400000000000   0.289430000000000  C
atom_frac    0.485060000000000   0.423720000000000   0.291690000000000  C
atom_frac    0.436590000000000   0.709920000000000   0.406280000000000  C
atom_frac    0.496890000000000   0.585310000000000   0.333870000000000  C
atom_frac    0.509360000000000   0.073920000000000   0.929190000000000  C
atom_frac    0.509470000000000   0.978020000000000   0.901750000000000  C
atom_frac    0.509330000000000   0.098840000000000   0.029090000000000  C
atom_frac    0.496730000000000   0.142080000000000   0.879670000000000  C
atom_frac    0.509560000000000   0.903160000000000   0.973080000000000  C
atom_frac    0.496960000000000   0.946390000000000   0.823660000000000  C
atom_frac    0.509420000000000   0.026910000000000   0.097640000000000  C
atom_frac    0.488900000000000   0.209130000000000   0.948960000000000  C
atom_frac    0.497110000000000   0.825260000000000   0.939090000000000  C
atom_frac    0.484710000000000   0.111680000000000   0.804640000000000  C
atom_frac    0.469990000000000   0.273310000000000   0.407520000000000  C
atom_frac    0.489440000000000   0.306900000000000   0.420980000000000  C