lattice_vector 6.432854 0.0 0.0
lattice_vector 0.0 11.791523 0.0
lattice_vector -2.487427 0.0 3.080391
atom 6.26711 4.89418 -0.23277 O
atom 5.40278 4.22376 -1.07929 C
atom 5.28850 4.67055 -2.05864 H
atom 4.91800 3.14295 -0.41320 C
atom 4.11649 1.87682 -0.14861 C
atom 4.38379 1.01125 -0.76843 H
atom 3.02547 1.99639 -0.16421 H
atom 4.76089 1.87494 1.30109 C
atom 5.39766 1.00741 1.51769 H
atom 4.04121 1.99630 2.12095 H
atom 5.49672 3.14053 0.88554 C
atom 6.31766 4.21995 0.97363 C
atom 6.97028 4.66273 1.71515 H
atom 6.26711 6.89735 -0.23277 O
atom 5.40278 7.56776 -1.07929 C
atom 5.28850 7.12098 -2.05864 H
atom 4.91800 8.64857 -0.41320 C
atom 4.11649 9.91471 -0.14861 C
atom 4.38379 10.78027 -0.76843 H
atom 3.02547 9.79514 -0.16421 H
atom 4.76089 9.91658 1.30109 C
atom 5.39766 10.78411 1.51769 H
atom 4.04121 9.79522 2.12095 H
atom 5.49672 8.65100 0.88554 C
atom 6.31766 7.57158 0.97363 C
atom 6.97028 7.12880 1.71515 H
