lattice_vector 20.174322 0.0 0.0
lattice_vector 0.0 5.256604 0.0
lattice_vector -2.524692 0.0 2.536387
atom 11.93727 4.58647 1.67234 O
atom 11.08985 3.69734 1.03637 C
atom 10.75309 4.01222 0.05697 H
atom 10.91023 2.62933 1.85730 C
atom 10.39571 1.28492 2.35062 C
atom 10.71753 0.41341 1.76603 H
atom 9.31091 1.22236 2.50606 H
atom 11.23892 1.54323 3.66939 C
atom 12.04515 0.81951 3.84614 H
atom 10.63954 1.63234 4.58461 H
atom 11.66715 2.86023 3.03856 C
atom 12.28642 4.06238 2.90359 C
atom 12.95283 4.68246 3.48944 H
atom 5.71237 7.21477 0.86404 O
atom 6.55978 6.32564 1.50001 C
atom 6.89654 6.64052 2.47942 H
atom 6.73940 5.25763 0.67909 C
atom 7.25392 3.91322 0.18577 C
atom 6.93210 3.04172 0.77035 H
atom 8.33872 3.85066 0.03033 H
atom 6.41071 4.17153 -1.13300 C
atom 5.60448 3.44781 -1.30975 H
atom 7.01009 4.26064 -2.04822 H
atom 5.98248 5.48854 -0.50217 C
atom 5.36321 6.69068 -0.36720 C
atom 4.69681 7.31076 -0.95305 H
