lattice_vector 2.921541 0.0 0.0
lattice_vector 5.659331664985753e-16 9.24239 0.0
lattice_vector 5.659331664985753e-16 5.659331664985753e-16 9.24239
atom 0.90360 1.21122 3.92187 C
atom 0.90360 -0.00000 3.22253 C
atom 0.90360 -1.21122 3.92187 C
atom 0.90360 -1.21122 5.32052 C
atom 0.90360 -0.00000 6.01986 C
atom 0.90360 1.21122 5.32052 C
atom 0.90360 2.15644 3.37623 H
atom 0.90360 -0.00000 2.13111 H
atom 0.90360 -2.15645 3.37623 H
atom 0.90360 -2.15645 5.86616 H
atom 0.90360 -0.00000 7.11127 H
atom 0.90360 2.15644 5.86616 H
atom 2.01794 3.92187 -1.21122 C
atom 2.01794 3.22253 0.00000 C
atom 2.01794 3.92187 1.21122 C
atom 2.01794 5.32052 1.21122 C
atom 2.01794 6.01986 0.00000 C
atom 2.01794 5.32052 -1.21122 C
atom 2.01794 3.37623 -2.15645 H
atom 2.01794 2.13111 0.00000 H
atom 2.01794 3.37623 2.15645 H
atom 2.01794 5.86616 2.15645 H
atom 2.01794 7.11127 0.00000 H
atom 2.01794 5.86616 -2.15645 H
