lattice_vector 6.23822 0.0 0.0
lattice_vector 0.0 13.552625 0.0
lattice_vector 2.124183 0.0 3.766928
atom 0.65098 10.07745 1.06624 O
atom 1.32601 11.23624 1.40486 C
atom 0.77064 12.15046 1.23886 H
atom 2.55279 10.88525 1.87246 C
atom 3.95682 11.03897 2.43869 C
atom 4.01400 11.46467 3.44881 H
atom 4.67103 11.56731 1.79400 H
atom 4.05984 9.45686 2.38220 C
atom 4.17864 8.97084 3.35928 H
atom 4.83180 9.07341 1.70258 H
atom 2.64448 9.46723 1.82318 C
atom 1.47087 8.99471 1.32700 C
atom 1.03737 8.02997 1.09639 H
atom 0.65098 3.47517 1.06624 O
atom 1.32601 2.31639 1.40486 C
atom 0.77064 1.40216 1.23886 H
atom 2.55279 2.66738 1.87246 C
atom 3.95682 2.51365 2.43869 C
atom 4.01400 2.08795 3.44881 H
atom 4.67103 1.98532 1.79400 H
atom 4.05984 4.09577 2.38220 C
atom 4.17864 4.58178 3.35928 H
atom 4.83180 4.47921 1.70258 H
atom 2.64448 4.08540 1.82318 C
atom 1.47087 4.55792 1.32700 C
atom 1.03737 5.52266 1.09639 H
