title geometry
lattice_vector 5.480254 0.000000 0.000000
lattice_vector 0.000000 6.875093 0.000000
lattice_vector 9.972350 0.000000 5.941762
-99.246273 -74.772247 -66.168136 9.404771 5.565395 2.777800 /home/trose/genarris_mpi4py/merged_4_17_2019/tests/full_diverse_workflow/harris_single_molecule_prep_aims_dir/geometry
-80.753684 -105.227948 113.831991 6.047835 2.127848 3.163953 /home/trose/genarris_mpi4py/merged_4_17_2019/tests/full_diverse_workflow/harris_single_molecule_prep_aims_dir/geometry
