lattice_vector 7.585341 0.0 0.0
lattice_vector 0.0 8.691167 0.0
lattice_vector -2.669182 0.0 4.081719
atom 4.30217 3.22638 3.54697 O
atom 3.63149 2.63621 2.49103 C
atom 2.73709 3.15665 2.17323 H
atom 4.31537 1.51785 2.13269 C
atom 4.66656 0.24782 1.37163 C
atom 4.91192 0.38629 0.31076 H
atom 3.94188 -0.57183 1.46037 H
atom 5.92505 0.12449 2.32970 C
atom 6.89559 0.18959 1.82096 H
atom 5.92409 -0.76510 2.97272 H
atom 5.44405 1.40820 2.99042 C
atom 5.41565 2.46298 3.84686 C
atom 6.01724 2.83788 4.66500 H
atom 0.61399 7.57196 0.53475 O
atom 1.28467 6.98180 1.59069 C
atom 2.17907 7.50223 1.90849 H
atom 0.60079 5.86343 1.94903 C
atom 0.24960 4.59340 2.71009 C
atom 0.00424 4.73188 3.77096 H
atom 0.97428 3.77375 2.62135 H
atom -1.00889 4.47007 1.75202 C
atom -1.97943 4.53517 2.26076 H
atom -1.00793 3.58048 1.10900 H
atom -0.52789 5.75378 1.09130 C
atom -0.49949 6.80856 0.23486 C
atom -1.10108 7.18346 -0.58328 H
