lattice_vector 14.517352 0.0 0.0
lattice_vector 0.0 5.839492 0.0
lattice_vector 2.609976 0.0 2.568377
atom 6.23840 3.90657 0.57383 O
atom 5.06001 4.62234 0.46350 C
atom 5.18668 5.69188 0.35466 H
atom 4.02712 3.74133 0.52526 C
atom 2.59514 3.22676 0.53882 C
atom 2.03141 3.37632 -0.39106 H
atom 1.97905 3.56628 1.38145 H
atom 3.20981 1.77449 0.71194 C
atom 2.99856 1.08639 -0.11686 H
atom 2.95010 1.27817 1.65590 H
atom 4.57814 2.43965 0.67893 C
atom 5.93108 2.56473 0.70634 C
atom 6.78733 1.90916 0.80064 H
atom 10.88893 0.98682 1.99454 O
atom 12.06732 1.70259 2.10488 C
atom 11.94065 2.77213 2.21371 H
atom 13.10021 0.82159 2.04311 C
atom 14.53218 0.30702 2.02956 C
atom 15.09591 0.45657 2.95944 H
atom 15.14828 0.64654 1.18693 H
atom 13.91751 -1.14526 1.85644 C
atom 14.12876 -1.83335 2.68523 H
atom 14.17723 -1.64158 0.91248 H
atom 12.54919 -0.48010 1.88944 C
atom 11.19625 -0.35502 1.86204 C
atom 10.34000 -1.01059 1.76774 H
