title geometry
lattice_vector 14.517352 0.000000 0.000000
lattice_vector 0.000000 5.839492 0.000000
lattice_vector 2.609976 0.000000 2.568377
93.124617 -59.333701 -149.948492 4.537908 3.189837 0.599609 /home/trose/genarris_mpi4py/merged_4_17_2019/tests/full_diverse_workflow/harris_single_molecule_prep_aims_dir/geometry
86.875138 -120.665984 30.051066 12.589422 0.270091 1.968759 /home/trose/genarris_mpi4py/merged_4_17_2019/tests/full_diverse_workflow/harris_single_molecule_prep_aims_dir/geometry
