lattice_vector 6.69113 0.0 0.0
lattice_vector 0.0 6.00428 0.0
lattice_vector 0.212522 0.0 6.707614
atom 6.16148 5.27577 0.61796 O
atom 5.01933 5.15240 1.38828 C
atom 4.68255 6.07090 1.85167 H
atom 4.62263 3.85334 1.34462 C
atom 3.79079 2.60983 1.62258 C
atom 2.76323 2.63398 1.23740 H
atom 3.76557 2.28267 2.67005 H
atom 4.82026 1.82177 0.70822 C
atom 4.38579 1.38983 -0.20264 H
atom 5.39045 1.04215 1.22969 H
atom 5.54448 3.14743 0.52394 C
atom 6.47653 4.03661 0.09093 C
atom 7.36065 4.01933 -0.53344 H
atom 6.26774 0.72850 3.97177 O
atom 5.12559 0.85188 4.74208 C
atom 4.78881 -0.06662 5.20547 H
atom 4.72890 2.15094 4.69843 C
atom 3.89705 3.39445 4.97638 C
atom 2.86949 3.37030 4.59120 H
atom 3.87184 3.72161 6.02385 H
atom 4.92652 4.18251 4.06203 C
atom 4.49205 4.61445 3.15117 H
atom 5.49671 4.96213 4.58350 H
atom 5.65074 2.85685 3.87775 C
atom 6.58279 1.96767 3.44474 C
atom 7.46692 1.98495 2.82037 H
