lattice_vector 13.261108 0.0 0.0
lattice_vector 0.0 9.298253 0.0
lattice_vector -1.662628 0.0 2.673986
atom 9.62258 2.42818 0.79774 O
atom 10.69773 2.06062 1.58645 C
atom 11.19081 1.14550 1.28443 H
atom 10.83956 2.99459 2.56339 C
atom 11.40985 3.69983 3.78525 C
atom 12.43353 4.08036 3.67519 H
atom 11.34232 3.14111 4.72766 H
atom 10.27490 4.78906 3.57944 C
atom 10.64428 5.79768 3.35305 H
atom 9.55153 4.85601 4.40230 H
atom 9.82327 3.97153 2.37799 C
atom 9.09126 3.60490 1.29327 C
atom 8.23820 3.98484 0.74577 H
atom 1.97590 7.07730 1.87625 O
atom 0.90075 6.70975 1.08754 C
atom 0.40767 5.79462 1.38956 H
atom 0.75892 7.64372 0.11059 C
atom 0.18863 8.34896 -1.11126 C
atom -0.83505 8.72949 -1.00121 H
atom 0.25616 7.79024 -2.05367 H
atom 1.32358 9.43819 -0.90546 C
atom 0.95420 10.44680 -0.67906 H
atom 2.04696 9.50514 -1.72831 H
atom 1.77521 8.62065 0.29600 C
atom 2.50722 8.25403 1.38071 C
atom 3.36028 8.63397 1.92822 H
