lattice_vector 11.80062 0.0 0.0
lattice_vector 0.0 5.20087 0.0
lattice_vector 5.092184 0.0 4.544833
atom 5.86272 1.41204 3.49357 O
atom 6.48803 2.55039 3.96923 C
atom 6.50830 2.64051 5.04778 H
atom 6.92132 3.26847 2.89990 C
atom 7.57388 4.39605 2.11361 C
atom 8.65594 4.50829 2.25983 H
atom 7.10118 5.38104 2.21948 H
atom 7.16362 3.60318 0.80214 C
atom 8.00889 3.26042 0.19138 H
atom 6.45210 4.13033 0.15354 H
atom 6.55490 2.55708 1.72462 C
atom 5.90884 1.42578 2.11146 C
atom 5.44426 0.57346 1.63236 H
atom 8.40881 3.78883 5.76598 O
atom 9.03412 2.65048 6.24164 C
atom 9.05439 2.56036 7.32019 H
atom 9.46741 1.93240 5.17232 C
atom 10.11997 0.80482 4.38602 C
atom 11.20203 0.69258 4.53225 H
atom 9.64727 -0.18017 4.49190 H
atom 9.70971 1.59769 3.07456 C
atom 10.55499 1.94045 2.46380 H
atom 8.99819 1.07054 2.42595 H
atom 9.10099 2.64379 3.99704 C
atom 8.45494 3.77508 4.38387 C
atom 7.99036 4.62741 3.90477 H
