title geometry
lattice_vector 11.800620 0.000000 0.000000
lattice_vector 0.000000 5.200870 0.000000
lattice_vector 5.092184 0.000000 4.544833
1.789454 -152.600203 -116.868974 6.630866 2.730829 2.455878 /home/trose/genarris_mpi4py/merged_4_17_2019/tests/full_diverse_workflow/harris_single_molecule_prep_aims_dir/geometry
-122.151657 -150.214248 -119.725985 9.176958 2.470037 4.728295 /home/trose/genarris_mpi4py/merged_4_17_2019/tests/full_diverse_workflow/harris_single_molecule_prep_aims_dir/geometry
