lattice_vector 14.78158 0.0 0.0
lattice_vector 0.0 6.54009 0.0
lattice_vector 2.200704 0.0 2.557091
atom 4.82339 7.03913 1.58517 O
atom 3.66272 6.46645 2.07301 C
atom 3.26130 6.93887 2.96041 H
atom 3.33747 5.42412 1.26394 C
atom 2.56355 4.23090 0.72283 C
atom 1.55052 4.45027 0.36162 H
atom 2.51850 3.35705 1.38558 H
atom 3.66537 4.14172 -0.41513 C
atom 3.28718 4.30741 -1.43224 H
atom 4.25728 3.21738 -0.40631 H
atom 4.32418 5.34519 0.24325 C
atom 5.22245 6.34178 0.45956 C
atom 6.12790 6.70943 -0.00605 H
atom 12.15889 7.03913 0.97193 O
atom 13.31956 6.46645 0.48408 C
atom 13.72099 6.93887 -0.40332 H
atom 13.64482 5.42412 1.29315 C
atom 14.41873 4.23090 1.83426 C
atom 15.43176 4.45027 2.19547 H
atom 14.46378 3.35705 1.17151 H
atom 13.31692 4.14172 2.97222 C
atom 13.69510 4.30741 3.98933 H
atom 12.72501 3.21738 2.96340 H
atom 12.65811 5.34519 2.31384 C
atom 11.75984 6.34178 2.09753 C
atom 10.85438 6.70943 2.56314 H
