lattice_vector 5.103128 0.0 0.0
lattice_vector 0.0 13.454142 0.0
lattice_vector -3.918347 0.0 3.347058
atom 3.96211 5.83949 1.25465 O
atom 2.92814 4.92851 1.37358 C
atom 2.03843 5.31172 1.85665 H
atom 3.33850 3.75477 0.82515 C
atom 3.29142 2.30272 0.37251 C
atom 2.55573 2.07624 -0.40998 H
atom 3.19021 1.56071 1.17503 H
atom 4.77353 2.50886 -0.15449 C
atom 4.89258 2.39900 -1.24020 H
atom 5.52698 1.88744 0.34650 H
atom 4.66627 3.94003 0.35154 C
atom 5.02698 5.22145 0.62488 C
atom 5.89649 5.84971 0.47975 H
atom 2.00293 7.61466 2.92818 O
atom 0.96896 8.52563 3.04711 C
atom 0.07925 8.14242 3.53018 H
atom 1.37932 9.69938 2.49868 C
atom 1.33224 11.15142 2.04604 C
atom 0.59655 11.37790 1.26355 H
atom 1.23103 11.89343 2.84856 H
atom 2.81436 10.94528 1.51904 C
atom 2.93341 11.05514 0.43333 H
atom 3.56781 11.56671 2.02003 H
atom 2.70710 9.51411 2.02507 C
atom 3.06781 8.23269 2.29841 C
atom 3.93731 7.60443 2.15328 H
