title geometry
lattice_vector 5.103128 0.000000 0.000000
lattice_vector 0.000000 13.454142 0.000000
lattice_vector -3.918347 0.000000 3.347058
163.122298 -90.662617 -140.451360 3.997789 4.089281 0.670209 /home/trose/genarris_mpi4py/merged_4_17_2019/tests/full_diverse_workflow/harris_single_molecule_prep_aims_dir/geometry
-175.670843 -138.535177 11.865504 2.038615 9.364857 2.343738 /home/trose/genarris_mpi4py/merged_4_17_2019/tests/full_diverse_workflow/harris_single_molecule_prep_aims_dir/geometry
