lattice_vector 10.212398 0.0 0.0
lattice_vector 0.0 4.882792 0.0
lattice_vector 2.99148 0.0 5.078706
atom 12.51218 3.28354 0.67069 O
atom 12.28883 4.58035 1.09674 C
atom 12.84980 5.33680 0.56299 H
atom 11.38636 4.53843 2.11193 C
atom 10.46790 5.03221 3.22015 C
atom 9.63609 5.66994 2.89422 H
atom 10.96898 5.51518 4.06898 H
atom 10.08048 3.51234 3.45847 C
atom 9.02516 3.27447 3.27215 H
atom 10.36098 3.11863 4.44394 H
atom 11.03809 3.17639 2.32447 C
atom 11.73830 2.42730 1.43260 C
atom 11.83705 1.37917 1.18059 H
atom 14.00792 1.59925 3.21005 O
atom 13.78457 0.30245 3.63609 C
atom 14.34554 -0.45401 3.10234 H
atom 12.88210 0.34436 4.65129 C
atom 11.96364 -0.14942 5.75950 C
atom 11.13183 -0.78714 5.43358 H
atom 12.46472 -0.63239 6.60834 H
atom 11.57622 1.37046 5.99782 C
atom 10.52090 1.60833 5.81151 H
atom 11.85672 1.76416 6.98329 H
atom 12.53383 1.70641 4.86382 C
atom 13.23404 2.45550 3.97195 C
atom 13.33279 3.50362 3.71995 H
