title geometry
lattice_vector 10.212398 0.000000 0.000000
lattice_vector 0.000000 4.882792 0.000000
lattice_vector 2.991480 0.000000 5.078706
83.824023 -51.566483 152.824793 11.370985 3.787603 2.030700 /home/trose/genarris_mpi4py/merged_4_17_2019/tests/full_diverse_workflow/harris_single_molecule_prep_aims_dir/geometry
-45.044508 -85.757161 69.059874 12.866725 1.095185 4.570053 /home/trose/genarris_mpi4py/merged_4_17_2019/tests/full_diverse_workflow/harris_single_molecule_prep_aims_dir/geometry
