title geometry
lattice_vector 9.495811 0.000000 0.000000
lattice_vector 0.000000 8.792534 0.000000
lattice_vector 4.858284 0.000000 3.124204
-122.125070 -107.815187 -95.906013 7.249020 2.041780 0.550997 /home/trose/genarris_mpi4py/merged_4_17_2019/tests/full_diverse_workflow/harris_single_molecule_prep_aims_dir/geometry
70.467274 -127.420253 -52.603116 9.678162 6.750751 2.113099 /home/trose/genarris_mpi4py/merged_4_17_2019/tests/full_diverse_workflow/harris_single_molecule_prep_aims_dir/geometry
