lattice_vector 3.696349 0.0 0.0
lattice_vector 0.0 9.33782 0.0
lattice_vector -3.451557 0.0 5.059003
atom 0.23757 2.17141 3.27948 O
atom 0.58483 3.13329 2.34819 C
atom 0.07079 4.07947 2.45914 H
atom 1.51662 2.59564 1.51781 C
atom 2.51291 2.49636 0.37191 C
atom 3.38326 3.16121 0.44471 H
atom 2.08537 2.58655 -0.63504 H
atom 2.77902 1.00606 0.84633 C
atom 3.80308 0.81131 1.19038 H
atom 2.50208 0.23715 0.11357 H
atom 1.75614 1.26049 1.94397 C
atom 0.96345 1.02279 3.02192 C
atom 0.76755 0.19989 3.69742 H
atom 0.00722 6.84032 1.77953 O
atom -0.34003 7.80220 2.71082 C
atom 0.17400 8.74838 2.59986 H
atom -1.27183 7.26456 3.54120 C
atom -2.26812 7.16527 4.68709 C
atom -3.13846 7.83012 4.61429 H
atom -1.84058 7.25546 5.69404 H
atom -2.53423 5.67496 4.21268 C
atom -3.55829 5.48022 3.86862 H
atom -2.25729 4.90606 4.94543 H
atom -1.51135 5.92940 3.11504 C
atom -0.71865 5.69170 2.03708 C
atom -0.52276 4.86880 1.36159 H
