title geometry
lattice_vector 3.696349 0.000000 0.000000
lattice_vector 0.000000 9.337820 0.000000
lattice_vector -3.451557 0.000000 5.059003
92.384037 -102.310532 -25.871731 1.465627 1.957378 1.918541 /home/trose/genarris_mpi4py/merged_4_17_2019/tests/full_diverse_workflow/harris_single_molecule_prep_aims_dir/geometry
87.615923 -77.689241 154.128502 -1.220833 6.626288 3.140453 /home/trose/genarris_mpi4py/merged_4_17_2019/tests/full_diverse_workflow/harris_single_molecule_prep_aims_dir/geometry
