lattice_vector 8.084596 0.0 0.0
lattice_vector 0.0 8.338 0.0
lattice_vector 2.729451 0.0 3.062083
atom 5.10152 9.97095 2.77960 O
atom 5.02019 9.13956 1.67719 C
atom 5.66953 9.41095 0.85470 H
atom 4.10633 8.17117 1.94905 C
atom 3.23252 6.94218 1.74513 C
atom 3.77250 5.99376 1.62779 H
atom 2.48453 7.02165 0.94572 H
atom 2.67057 7.20570 3.20515 C
atom 2.88459 6.40838 3.92867 H
atom 1.59899 7.43986 3.24672 H
atom 3.60383 8.40655 3.25814 C
atom 4.22596 9.51166 3.74655 C
atom 4.20946 10.09417 4.65882 H
atom 5.71253 5.80195 0.28248 O
atom 5.79386 4.97056 1.38489 C
atom 5.14452 5.24195 2.20739 H
atom 6.70772 4.00217 1.11303 C
atom 7.58152 2.77318 1.31695 C
atom 7.04155 1.82476 1.43430 H
atom 8.32951 2.85265 2.11637 H
atom 8.14347 3.03670 -0.14307 C
atom 7.92945 2.23938 -0.86659 H
atom 9.21505 3.27086 -0.18464 H
atom 7.21022 4.23755 -0.19606 C
atom 6.58809 5.34266 -0.68447 C
atom 6.60459 5.92517 -1.59674 H
