lattice_vector 16.424372 0.0 0.0
lattice_vector 0.0 4.701233 0.0
lattice_vector -6.381495 0.0 4.048285
atom -0.63140 3.52247 1.97003 O
atom -1.84075 3.34687 2.61791 C
atom -2.63188 4.00922 2.29046 H
atom -1.68901 2.34616 3.52476 C
atom -2.04565 1.35696 4.62468 C
atom -2.80235 0.60784 4.35810 H
atom -2.31722 1.80209 5.59059 H
atom -0.54726 0.84423 4.53072 C
atom -0.44034 -0.20083 4.21225 H
atom 0.04556 0.99655 5.44188 H
atom -0.34650 1.88570 3.43946 C
atom 0.28139 2.61901 2.48296 C
atom 1.26893 2.67047 2.04257 H
atom 10.67428 5.87308 2.07826 O
atom 11.88363 5.69749 1.43038 C
atom 12.67475 6.35984 1.75783 H
atom 11.73188 4.69678 0.52352 C
atom 12.08853 3.70758 -0.57639 C
atom 12.84523 2.95846 -0.30981 H
atom 12.36009 4.15271 -1.54230 H
atom 10.59014 3.19485 -0.48244 C
atom 10.48321 2.14979 -0.16397 H
atom 9.99732 3.34717 -1.39359 H
atom 10.38937 4.23632 0.60883 C
atom 9.76148 4.96962 1.56532 C
atom 8.77395 5.02109 2.00571 H
