lattice_vector 6.7033 0.0 0.0
lattice_vector 0.0 3.795614 0.0
lattice_vector 11.810711 0.0 10.912432
atom 9.85405 3.24174 4.64535 O
atom 9.31281 2.42451 3.66949 C
atom 9.79184 2.49459 2.70129 H
atom 8.28492 1.73131 4.22604 C
atom 7.11781 0.76107 4.33566 C
atom 7.36867 -0.29717 4.18719 H
atom 6.24200 1.00405 3.72021 H
atom 7.00279 1.20555 5.85425 C
atom 7.18508 0.40325 6.58094 H
atom 6.06153 1.70734 6.11322 H
atom 8.18286 2.12863 5.58741 C
atom 9.15158 3.05257 5.82148 C
atom 9.49521 3.64838 6.65738 H
atom 15.75941 0.55387 10.10157 O
atom 15.21817 1.37111 9.12571 C
atom 15.69720 1.30102 8.15750 H
atom 14.19027 2.06431 9.68225 C
atom 13.02316 3.03455 9.79188 C
atom 13.27402 4.09278 9.64340 H
atom 12.14736 2.79157 9.17642 H
atom 12.90815 2.59007 11.31046 C
atom 13.09043 3.39237 12.03716 H
atom 11.96688 2.08828 11.56944 H
atom 14.08821 1.66698 11.04363 C
atom 15.05693 0.74305 11.27770 C
atom 15.40057 0.14723 12.11360 H
