title geometry
lattice_vector 3.086420 0.000000 0.000000
lattice_vector 0.000000 17.093605 0.000000
lattice_vector 6.227871 0.000000 5.363229
-40.570720 -14.506592 48.000855 2.835416 5.767986 0.796594 /home/trose/genarris_mpi4py/merged_4_17_2019/tests/full_diverse_workflow/harris_single_molecule_prep_aims_dir/geometry
-164.975726 -35.649246 36.792339 2.835416 11.325616 0.796594 /home/trose/genarris_mpi4py/merged_4_17_2019/tests/full_diverse_workflow/harris_single_molecule_prep_aims_dir/geometry
