lattice_vector 17.02973 0.0 0.0
lattice_vector 0.0 4.946887 0.0
lattice_vector -3.568734 0.0 2.729704
atom 11.89035 6.61770 1.55786 O
atom 10.93757 5.91177 0.84582 C
atom 10.61830 6.38195 -0.07548 H
atom 10.65746 4.77410 1.53436 C
atom 10.00758 3.44103 1.87510 C
atom 10.21963 2.62087 1.17709 H
atom 8.92579 3.47580 2.05783 H
atom 10.90008 3.43911 3.18671 C
atom 11.62485 2.61679 3.24583 H
atom 10.33242 3.47564 4.12546 H
atom 11.45847 4.77175 2.70910 C
atom 12.20383 5.90808 2.70273 C
atom 12.94606 6.37437 3.33794 H
atom 1.57064 6.61770 1.17184 O
atom 2.52342 5.91177 1.88388 C
atom 2.84269 6.38195 2.80518 H
atom 2.80353 4.77410 1.19535 C
atom 3.45341 3.44103 0.85461 C
atom 3.24136 2.62087 1.55261 H
atom 4.53520 3.47580 0.67188 H
atom 2.56091 3.43911 -0.45701 C
atom 1.83614 2.61679 -0.51612 H
atom 3.12858 3.47564 -1.39576 H
atom 2.00253 4.77175 0.02061 C
atom 1.25717 5.90808 0.02698 C
atom 0.51494 6.37437 -0.60824 H
