lattice_vector 8.067146 0.0 0.0
lattice_vector 0.0 17.6532 0.0
lattice_vector 2.327804 0.0 2.559867
atom 3.29966 7.02229 2.67969 O
atom 3.80302 7.95174 1.78757 C
atom 3.48898 8.97171 1.96876 H
atom 4.58645 7.29310 0.89356 C
atom 5.51052 7.06983 -0.29463 C
atom 6.49657 7.54644 -0.22134 H
atom 5.08060 7.30168 -1.27762 H
atom 5.49102 5.53064 0.08930 C
atom 6.46598 5.11955 0.38165 H
atom 5.04714 4.87572 -0.67155 H
atom 4.57011 5.91385 1.23861 C
atom 3.77719 5.77155 2.33309 C
atom 3.44227 4.96389 2.97132 H
atom 4.46356 10.63091 3.95962 O
atom 4.96692 9.70146 3.06750 C
atom 4.65288 8.68149 3.24870 H
atom 5.75036 10.36011 2.17349 C
atom 6.67442 10.58337 0.98530 C
atom 7.66047 10.10676 1.05859 H
atom 6.24450 10.35152 0.00231 H
atom 6.65492 12.12256 1.36924 C
atom 7.62988 12.53365 1.66158 H
atom 6.21105 12.77748 0.60838 H
atom 5.73401 11.73935 2.51854 C
atom 4.94110 11.88165 3.61302 C
atom 4.60617 12.68931 4.25126 H
