lattice_vector 10.189106 0.0 0.0
lattice_vector 0.0 7.418589 0.0
lattice_vector -4.566629 0.0 3.927836
atom 1.13638 1.29160 2.07582 O
atom 0.25239 2.33994 2.25654 C
atom 0.59834 3.11519 2.92818 H
atom -0.85245 2.09077 1.50549 C
atom -2.23044 2.29144 0.89197 C
atom -2.32815 3.15768 0.22495 H
atom -3.06730 2.29898 1.60223 H
atom -2.00629 0.90785 0.14877 C
atom -1.97705 0.97618 -0.94643 H
atom -2.71250 0.11708 0.43300 H
atom -0.65086 0.85148 0.83830 C
atom 0.57115 0.38097 1.20186 C
atom 1.18388 -0.48562 0.98879 H
atom 4.48609 5.00090 1.85202 O
atom 5.37008 6.04923 1.67130 C
atom 5.02414 6.82449 0.99966 H
atom 6.47493 5.80007 2.42235 C
atom 7.85292 6.00073 3.03586 C
atom 7.95063 6.86697 3.70288 H
atom 8.68978 6.00828 2.32560 H
atom 7.62877 4.61715 3.77906 C
atom 7.59953 4.68547 4.87427 H
atom 8.33498 3.82637 3.49484 H
atom 6.27333 4.56077 3.08954 C
atom 5.05133 4.09026 2.72597 C
atom 4.43859 3.22367 2.93904 H
