title geometry
lattice_vector 4.088360 0.000000 0.000000
lattice_vector 0.000000 4.952869 0.000000
lattice_vector 1.900205 0.000000 15.250469
-10.686354 -56.113254 -13.982235 1.968745 3.316480 4.818996 /home/trose/genarris_mpi4py/merged_4_17_2019/tests/full_diverse_workflow/harris_single_molecule_prep_aims_dir/geometry
-54.770352 -34.181574 -59.304080 2.918847 1.636385 12.444231 /home/trose/genarris_mpi4py/merged_4_17_2019/tests/full_diverse_workflow/harris_single_molecule_prep_aims_dir/geometry
