lattice_vector 4.25768 0.0 0.0
lattice_vector 0.0 5.974008 0.0
lattice_vector 12.256805 0.0 10.039476
atom 14.79699 3.07029 7.80895 O
atom 14.19978 1.85259 7.53758 C
atom 14.12904 1.60567 6.48600 H
atom 13.85411 1.28216 8.72163 C
atom 13.28968 0.25957 9.69695 C
atom 13.80077 -0.71174 9.71020 H
atom 12.20807 0.08632 9.62650 H
atom 13.72647 1.25129 10.85566 C
atom 14.48748 0.85094 11.53798 H
atom 12.89598 1.65181 11.45125 H
atom 14.24694 2.17036 9.76009 C
atom 14.82082 3.25661 9.17908 C
atom 15.27083 4.18600 9.50397 H
atom 8.66859 2.90371 2.78921 O
atom 8.07138 4.12142 2.51784 C
atom 8.00064 4.36834 1.46626 H
atom 7.72571 4.69185 3.70189 C
atom 7.16128 5.71444 4.67721 C
atom 7.67237 6.68574 4.69046 H
atom 6.07966 5.88769 4.60676 H
atom 7.59806 4.72271 5.83592 C
atom 8.35909 5.12307 6.51825 H
atom 6.76758 4.32220 6.43151 H
atom 8.11854 3.80365 4.74036 C
atom 8.69241 2.71740 4.15934 C
atom 9.14243 1.78801 4.48423 H
