lattice_vector 4.137475 0.0 0.0
lattice_vector 0.0 5.933259 0.0
lattice_vector 1.05294 0.0 5.05057
atom 1.09748 1.96088 1.87703 O
atom 0.35657 2.65190 2.81865 C
atom -0.64108 2.92567 2.49999 H
atom 1.12437 2.79941 3.93021 C
atom 1.52570 3.22041 5.33635 C
atom 0.94947 2.75976 6.14912 H
atom 1.57361 4.30323 5.50976 H
atom 2.92687 2.53405 5.04909 C
atom 3.15928 1.67939 5.69759 H
atom 3.78208 3.22211 5.05421 H
atom 2.37958 2.18296 3.67321 C
atom 2.34069 1.67737 2.41237 C
atom 3.00629 1.13402 1.75391 H
atom 4.09293 4.92751 3.17354 O
atom 4.83385 5.61853 2.23192 C
atom 5.83149 5.89230 2.55058 H
atom 4.06605 5.76604 1.12036 C
atom 3.66472 6.18704 -0.28578 C
atom 4.24094 5.72640 -1.09855 H
atom 3.61681 7.26986 -0.45919 H
atom 2.26355 5.50068 0.00148 C
atom 2.03113 4.64602 -0.64702 H
atom 1.40833 6.18874 -0.00364 H
atom 2.81083 5.14958 1.37735 C
atom 2.84972 4.64400 2.63820 C
atom 2.18412 4.10065 3.29666 H
