lattice_vector 8.983994 0.0 0.0
lattice_vector 0.0 6.013803 0.0
lattice_vector -4.932339 0.0 5.689713
atom 2.64406 6.42221 0.54560 O
atom 1.68747 5.76659 -0.20820 C
atom 1.34671 6.30885 -1.08091 H
atom 1.43281 4.57106 0.38570 C
atom 0.80474 3.20543 0.62254 C
atom 1.01431 2.45023 -0.14596 H
atom -0.27404 3.21026 0.82517 H
atom 1.71985 3.10422 1.91453 C
atom 2.45520 2.28952 1.89177 H
atom 1.16817 3.05357 2.86212 H
atom 2.25407 4.47981 1.54278 C
atom 2.98573 5.62237 1.62080 C
atom 3.73331 6.04295 2.28114 H
atom 0.17789 -0.40841 3.39046 O
atom -0.77870 0.24722 2.63666 C
atom -1.11946 -0.29505 1.76394 H
atom -1.03335 1.44274 3.23056 C
atom -1.66143 2.80838 3.46739 C
atom -1.45186 3.56357 2.69889 H
atom -2.74021 2.80354 3.67003 H
atom -0.74633 2.90958 4.75939 C
atom -0.01097 3.72429 4.73663 H
atom -1.29799 2.96024 5.70698 H
atom -0.21210 1.53400 4.38764 C
atom 0.51956 0.39143 4.46566 C
atom 1.26715 -0.02915 5.12599 H
