lattice_vector 9.496527 0.0 0.0
lattice_vector 0.0 5.889932 0.0
lattice_vector 5.638676 0.0 4.344224
atom 8.56334 3.20935 -1.96127 O
atom 7.56509 3.87823 -1.27628 C
atom 6.62639 3.96198 -1.80883 H
atom 8.06619 4.25945 -0.07195 C
atom 8.11695 4.88589 1.31388 C
atom 7.45100 4.43411 2.06037 H
atom 7.99077 5.97584 1.34460 H
atom 9.62283 4.39216 1.38770 C
atom 9.82538 3.65768 2.17796 H
atom 10.36476 5.19803 1.45813 H
atom 9.41534 3.81563 -0.00528 C
atom 9.69772 3.17658 -1.17092 C
atom 10.54661 2.67205 -1.61437 H
atom 11.38268 2.68058 0.21084 O
atom 10.38443 2.01171 0.89584 C
atom 9.44572 1.92795 0.36329 H
atom 10.88553 1.63048 2.10016 C
atom 10.93629 1.00404 3.48600 C
atom 10.27034 1.45582 4.23248 H
atom 10.81010 -0.08591 3.51671 H
atom 12.44217 1.49777 3.55981 C
atom 12.64471 2.23225 4.35007 H
atom 13.18410 0.69190 3.63024 H
atom 12.23468 2.07430 2.16684 C
atom 12.51706 2.71335 1.00119 C
atom 13.36595 3.21788 0.55774 H
