title geometry
lattice_vector 3.999270 0.000000 0.000000
lattice_vector 0.000000 10.643502 0.000000
lattice_vector 3.454719 0.000000 5.418791
-66.422221 -24.819216 41.357997 5.168786 8.514373 2.559961 /home/trose/genarris_mpi4py/merged_4_17_2019/tests/full_diverse_workflow/harris_single_molecule_prep_aims_dir/geometry
-136.578463 -25.336627 41.109603 5.168786 2.129126 2.559961 /home/trose/genarris_mpi4py/merged_4_17_2019/tests/full_diverse_workflow/harris_single_molecule_prep_aims_dir/geometry
