lattice_vector 7.757544 0.0 0.0
lattice_vector 0.0 6.222189 0.0
lattice_vector 2.428323 0.0 4.715186
atom 4.04968 -0.73494 1.22345 O
atom 4.60322 0.17041 2.11061 C
atom 3.93537 0.50494 2.89411 H
atom 5.88887 0.39557 1.73214 C
atom 7.29558 0.97561 1.74772 C
atom 7.90484 0.71186 2.62184 H
atom 7.36148 2.05957 1.58789 H
atom 7.57881 0.09834 0.45657 C
atom 8.35270 -0.66939 0.58569 H
atom 7.80520 0.67712 -0.44820 H
atom 6.14307 -0.39182 0.57584 C
atom 5.00500 -1.07432 0.28285 C
atom 4.67471 -1.78329 -0.46554 H
atom 6.13619 2.37616 3.49174 O
atom 5.58265 3.28151 2.60457 C
atom 6.25049 3.61604 1.82107 H
atom 4.29700 3.50667 2.98305 C
atom 2.89029 4.08670 2.96746 C
atom 2.28103 3.82295 2.09335 H
atom 2.82439 5.17066 3.12730 H
atom 2.60706 3.20944 4.25862 C
atom 1.83317 2.44170 4.12949 H
atom 2.38066 3.78821 5.16338 H
atom 4.04280 2.71927 4.13935 C
atom 5.18087 2.03677 4.43234 C
atom 5.51116 1.32780 5.18073 H
