title geometry
lattice_vector 7.757544 0.000000 0.000000
lattice_vector 0.000000 6.222189 0.000000
lattice_vector 2.428323 0.000000 4.715186
169.276051 -161.868618 77.457900 5.776635 -0.086945 1.161908 /home/trose/genarris_mpi4py/merged_4_17_2019/tests/full_diverse_workflow/harris_single_molecule_prep_aims_dir/geometry
10.723121 -18.131533 -102.541215 4.409233 3.024149 3.553270 /home/trose/genarris_mpi4py/merged_4_17_2019/tests/full_diverse_workflow/harris_single_molecule_prep_aims_dir/geometry
