title geometry
lattice_vector 7.042673 0.000000 0.000000
lattice_vector 0.000000 14.056894 0.000000
lattice_vector 2.383243 0.000000 2.638656
26.974248 -66.005575 -36.205645 7.560164 3.579642 1.932348 /home/trose/genarris_mpi4py/merged_4_17_2019/tests/full_diverse_workflow/harris_single_molecule_prep_aims_dir/geometry
-82.611105 -55.909187 -57.804675 7.560164 10.477249 1.932348 /home/trose/genarris_mpi4py/merged_4_17_2019/tests/full_diverse_workflow/harris_single_molecule_prep_aims_dir/geometry
