lattice_vector 9.293739 0.0 0.0
lattice_vector 0.0 9.033162 0.0
lattice_vector 3.851062 0.0 2.700415
atom 0.23137 4.72250 -1.46733 O
atom -0.21612 4.53375 -0.17225 C
atom -1.13965 5.04468 0.06824 H
atom 0.66981 3.72254 0.46329 C
atom 1.30041 2.90218 1.57903 C
atom 0.71009 2.04380 1.92477 H
atom 1.63511 3.47364 2.45440 H
atom 2.44941 2.54042 0.54663 C
atom 2.52286 1.47350 0.29905 H
atom 3.44601 2.90600 0.82586 H
atom 1.69875 3.39718 -0.46248 C
atom 1.41030 4.01942 -1.63571 C
atom 1.85019 4.09848 -2.62164 H
atom 12.91343 9.23908 4.16775 O
atom 13.36092 9.05034 2.87266 C
atom 14.28446 9.56126 2.63217 H
atom 12.47499 8.23913 2.23713 C
atom 11.84439 7.41876 1.12139 C
atom 12.43471 6.56038 0.77565 H
atom 11.50969 7.99022 0.24602 H
atom 10.69540 7.05700 2.15378 C
atom 10.62194 5.99008 2.40137 H
atom 9.69879 7.42258 1.87456 H
atom 11.44605 7.91376 3.16290 C
atom 11.73450 8.53600 4.33613 C
atom 11.29461 8.61506 5.32206 H
