lattice_vector 8.379014 0.0 0.0
lattice_vector 0.0 7.105872 0.0
lattice_vector -4.449047 0.0 3.415371
atom 5.61630 5.13727 0.45301 O
atom 5.01699 6.24944 1.01606 C
atom 5.49925 7.19082 0.78577 H
atom 3.94177 5.82851 1.73269 C
atom 2.71001 5.89855 2.62342 C
atom 1.85180 6.43621 2.20007 H
atom 2.88485 6.26397 3.64359 H
atom 2.63051 4.31961 2.49108 C
atom 1.72567 3.94707 1.99361 H
atom 2.76240 3.77496 3.43491 H
atom 3.86973 4.41356 1.61282 C
atom 4.90313 4.01279 0.82649 C
atom 5.28915 3.07933 0.43731 H
atom -1.68633 1.58433 2.96236 O
atom -1.08702 2.69651 2.39931 C
atom -1.56928 3.63788 2.62960 H
atom -0.01180 2.27557 1.68269 C
atom 1.21996 2.34561 0.79195 C
atom 2.07817 2.88327 1.21530 H
atom 1.04512 2.71104 -0.22822 H
atom 1.29945 0.76667 0.92429 C
atom 2.20430 0.39414 1.42176 H
atom 1.16756 0.22203 -0.01954 H
atom 0.06024 0.86063 1.80255 C
atom -0.97317 0.45985 2.58888 C
atom -1.35919 -0.47361 2.97806 H
