lattice_vector 7.042673 0.0 0.0
lattice_vector 0.0 14.056894 0.0
lattice_vector 2.383243 0.0 2.638656
atom 8.10031 4.94290 3.05299 O
atom 8.35235 4.86779 1.69507 C
atom 8.91705 5.69836 1.29126 H
atom 7.79495 3.71967 1.22819 C
atom 7.38493 2.63604 0.24170 C
atom 8.21174 2.07905 -0.21761 H
atom 6.69367 2.95427 -0.54934 H
atom 6.69476 1.90204 1.46718 C
atom 7.12213 0.92120 1.71279 H
atom 5.60509 1.79981 1.38352 H
atom 7.17770 3.06118 2.32683 C
atom 7.37672 3.82689 3.43179 C
atom 7.12377 3.78422 4.48346 H
atom 8.10031 9.11400 3.05299 O
atom 8.35235 9.18911 1.69507 C
atom 8.91705 8.35854 1.29126 H
atom 7.79495 10.33722 1.22819 C
atom 7.38493 11.42085 0.24170 C
atom 8.21174 11.97785 -0.21761 H
atom 6.69367 11.10263 -0.54934 H
atom 6.69476 12.15486 1.46718 C
atom 7.12213 13.13569 1.71279 H
atom 5.60509 12.25708 1.38352 H
atom 7.17770 10.99572 2.32683 C
atom 7.37672 10.23000 3.43179 C
atom 7.12377 10.27268 4.48346 H
