lattice_vector 7.5406 0.0 0.0
lattice_vector 0.0 3.905472 0.0
lattice_vector 12.773924 0.0 9.488359
atom 10.43030 2.67011 1.05048 O
atom 9.45365 1.80607 0.58928 C
atom 9.13796 1.98053 -0.43136 H
atom 9.15128 0.94118 1.59296 C
atom 8.47119 -0.20611 2.32559 C
atom 8.65620 -1.20571 1.91159 H
atom 7.39232 -0.08826 2.48997 H
atom 9.37522 0.16908 3.57414 C
atom 10.07959 -0.61488 3.88117 H
atom 8.81719 0.50593 4.45730 H
atom 9.96259 1.27657 2.71140 C
atom 10.73621 2.33624 2.35719 C
atom 11.49566 2.95434 2.81870 H
atom 16.81726 1.23536 5.79465 O
atom 15.84062 2.09940 5.33346 C
atom 15.52493 1.92495 4.31282 H
atom 15.53824 2.96430 6.33714 C
atom 14.85815 4.11158 7.06977 C
atom 15.04317 5.11118 6.65577 H
atom 13.77928 3.99373 7.23415 H
atom 15.76218 3.73639 8.31831 C
atom 16.46655 4.52035 8.62535 H
atom 15.20415 3.39954 9.20148 H
atom 16.34955 2.62891 7.45558 C
atom 17.12317 1.56923 7.10137 C
atom 17.88262 0.95113 7.56288 H
