lattice_vector 23.984064 0.0 0.0
lattice_vector 0.0 3.532281 0.0
lattice_vector -4.377933 0.0 2.612983
atom 6.12308 2.36525 -0.71480 O
atom 4.97292 1.62496 -0.92031 C
atom 4.48674 1.79587 -1.87227 H
atom 4.76725 0.85567 0.18093 C
atom 4.10504 -0.15281 1.10828 C
atom 4.07619 -1.18579 0.73822 H
atom 3.10373 0.12032 1.46555 H
atom 5.27793 0.14885 2.13309 C
atom 5.92364 -0.71058 2.35545 H
atom 4.95261 0.59855 3.08007 H
atom 5.81927 1.12499 1.09872 C
atom 6.63596 2.05068 0.53040 C
atom 7.54381 2.57769 0.79476 H
atom 13.48306 4.13139 3.32779 O
atom 14.63321 3.39110 3.53330 C
atom 15.11939 3.56202 4.48525 H
atom 14.83888 2.62181 2.43205 C
atom 15.50109 1.61333 1.50471 C
atom 15.52994 0.58035 1.87476 H
atom 16.50240 1.88646 1.14743 H
atom 14.32820 1.91499 0.47989 C
atom 13.68250 1.05556 0.25753 H
atom 14.65352 2.36469 -0.46709 H
atom 13.78686 2.89113 1.51426 C
atom 12.97017 3.81682 2.08258 C
atom 12.06232 4.34383 1.81822 H
