lattice_vector 11.741952 0.0 0.0
lattice_vector 0.0 3.20763 0.0
lattice_vector -1.973254 0.0 5.097779
atom 6.84639 1.46664 3.17194 O
atom 8.17303 1.17602 3.43402 C
atom 8.52998 1.51347 4.39865 H
atom 8.67853 0.51813 2.35769 C
atom 9.68781 -0.20317 1.47644 C
atom 10.05971 -1.15813 1.86961 H
atom 10.54486 0.39941 1.14897 H
atom 8.52609 -0.33806 0.40448 C
atom 8.22995 -1.37056 0.17810 H
atom 8.71260 0.18933 -0.53993 H
atom 7.63690 0.39598 1.39763 C
atom 6.52642 0.98291 1.91649 C
atom 5.50340 1.15778 1.60881 H
atom 2.92231 1.46664 1.92584 O
atom 1.59567 1.17602 1.66376 C
atom 1.23872 1.51347 0.69913 H
atom 1.09017 0.51813 2.74009 C
atom 0.08089 -0.20317 3.62134 C
atom -0.29101 -1.15813 3.22817 H
atom -0.77616 0.39941 3.94881 H
atom 1.24260 -0.33806 4.69330 C
atom 1.53875 -1.37056 4.91968 H
atom 1.05610 0.18933 5.63771 H
atom 2.13180 0.39598 3.70015 C
atom 3.24228 0.98291 3.18129 C
atom 4.26530 1.15778 3.48897 H
