lattice_vector 7.065892 0.0 0.0
lattice_vector 0.0 6.279213 0.0
lattice_vector -3.774548 0.0 7.098912
atom 4.18847 3.98327 4.14655 O
atom 4.13774 4.21591 2.78405 C
atom 4.63718 5.11949 2.45861 H
atom 3.44364 3.19797 2.21059 C
atom 2.78385 2.36022 1.12506 C
atom 3.46709 1.92567 0.38400 H
atom 1.95241 2.84307 0.59548 H
atom 2.34368 1.36587 2.28023 C
atom 2.77128 0.35775 2.20384 H
atom 1.25829 1.27790 2.41817 H
atom 3.05047 2.30609 3.24577 C
atom 3.51632 2.80609 4.42044 C
atom 3.49493 2.52727 5.46620 H
atom -0.89712 7.12288 2.95236 O
atom -0.84640 7.35552 4.31486 C
atom -1.34584 8.25909 4.64030 H
atom -0.15230 6.33757 4.88832 C
atom 0.50750 5.49983 5.97386 C
atom -0.17575 5.06527 6.71491 H
atom 1.33893 5.98268 6.50343 H
atom 0.94766 4.50548 4.81869 C
atom 0.52006 3.49735 4.89507 H
atom 2.03306 4.41751 4.68074 H
atom 0.24088 5.44570 3.85314 C
atom -0.22498 5.94570 2.67848 C
atom -0.20358 5.66687 1.63271 H
