title geometry
lattice_vector 4.635981 0.000000 0.000000
lattice_vector 0.000000 5.722012 0.000000
lattice_vector -4.192634 0.000000 11.120411
-67.026436 -133.571427 -61.368653 2.811647 4.116966 4.431602 /home/trose/genarris_mpi4py/merged_4_17_2019/tests/full_diverse_workflow/harris_single_molecule_prep_aims_dir/geometry
9.183184 -116.800948 -97.162687 0.715331 1.605042 9.991807 /home/trose/genarris_mpi4py/merged_4_17_2019/tests/full_diverse_workflow/harris_single_molecule_prep_aims_dir/geometry
