lattice_vector 11.360963 0.0 0.0
lattice_vector 0.0 6.006804 0.0
lattice_vector 4.382428 0.0 4.247077
atom 2.72612 4.46545 -1.11393 O
atom 3.10622 3.23598 -0.60692 C
atom 2.95451 2.40096 -1.27886 H
atom 3.58552 3.43085 0.64972 C
atom 4.17952 3.10463 2.01217 C
atom 5.20118 2.70359 1.99748 H
atom 3.56110 2.46671 2.65674 H
atom 4.08377 4.65608 2.32957 C
atom 5.04979 5.14876 2.50002 H
atom 3.40775 4.91242 3.15548 H
atom 3.50103 4.82151 0.93354 C
atom 2.97270 5.43428 -0.15836 C
atom 2.70975 6.44192 -0.45386 H
atom 13.01727 4.46545 5.36100 O
atom 12.63718 3.23598 4.85399 C
atom 12.78889 2.40096 5.52594 H
atom 12.15788 3.43085 3.59735 C
atom 11.56387 3.10463 2.23491 C
atom 10.54221 2.70359 2.24959 H
atom 12.18229 2.46671 1.59033 H
atom 11.65963 4.65608 1.91751 C
atom 10.69360 5.14876 1.74705 H
atom 12.33564 4.91242 1.09159 H
atom 12.24236 4.82151 3.31353 C
atom 12.77069 5.43428 4.40543 C
atom 13.03365 6.44192 4.70093 H
