title geometry
lattice_vector 16.378340 0.000000 0.000000
lattice_vector 0.000000 4.340037 0.000000
lattice_vector 2.562207 0.000000 3.999290
51.492696 -138.528253 -44.864057 12.033770 3.694051 0.564038 /home/trose/genarris_mpi4py/merged_4_17_2019/tests/full_diverse_workflow/harris_single_molecule_prep_aims_dir/geometry
128.507502 -41.471451 135.135840 6.906779 3.694051 3.435243 /home/trose/genarris_mpi4py/merged_4_17_2019/tests/full_diverse_workflow/harris_single_molecule_prep_aims_dir/geometry
