lattice_vector 12.156745 0.0 0.0
lattice_vector 0.0 3.338047 0.0
lattice_vector -7.181352 0.0 6.132651
atom 1.47538 1.13463 1.98403 O
atom 0.11137 0.93126 2.08990 C
atom -0.29119 1.06063 3.08640 H
atom -0.36176 0.61186 0.85662 C
atom -1.35573 0.23307 -0.23153 C
atom -2.12542 0.98464 -0.44962 H
atom -1.84288 -0.74273 -0.10757 H
atom -0.12696 0.23606 -1.23502 C
atom -0.18939 0.98763 -2.03268 H
atom 0.09575 -0.73898 -1.68728 H
atom 0.73932 0.61601 -0.04295 C
atom 1.85192 0.93790 0.66795 C
atom 2.90790 1.07310 0.47191 H
atom -2.11529 2.20342 5.05035 O
atom -3.47931 2.40679 5.15623 C
atom -3.88187 2.27742 6.15272 H
atom -3.95243 2.72619 3.92295 C
atom -4.94641 3.10497 2.83480 C
atom -5.71610 2.35341 2.61671 H
atom -5.43355 4.08077 2.95875 H
atom -3.71763 3.10199 1.83130 C
atom -3.78006 2.35042 1.03365 H
atom -3.49493 4.07703 1.37905 H
atom -2.85135 2.72204 3.02337 C
atom -1.73876 2.40015 3.73427 C
atom -0.68277 2.26495 3.53823 H
