title geometry
lattice_vector 12.156745 0.000000 0.000000
lattice_vector 0.000000 3.338047 0.000000
lattice_vector -7.181352 0.000000 6.132651
139.240401 -133.471371 -107.612765 0.345308 0.676298 0.598774 /home/trose/genarris_mpi4py/merged_4_17_2019/tests/full_diverse_workflow/harris_single_molecule_prep_aims_dir/geometry
141.599276 -147.814719 -80.823019 -3.245368 2.661745 3.665100 /home/trose/genarris_mpi4py/merged_4_17_2019/tests/full_diverse_workflow/harris_single_molecule_prep_aims_dir/geometry
