lattice_vector 5.974046 0.0 0.0
lattice_vector 0.0 7.25787 0.0
lattice_vector -8.554788 0.0 5.744003
atom 2.28241 4.13785 3.25118 O
atom 3.22014 3.61619 2.37846 C
atom 4.12758 3.25809 2.84762 H
atom 2.71547 3.70357 1.11969 C
atom 2.63814 3.57158 -0.39429 C
atom 2.64033 2.54348 -0.77881 H
atom 3.37446 4.15889 -0.95798 H
atom 1.20079 4.23533 -0.29251 C
atom 0.37487 3.59084 -0.62039 H
atom 1.10968 5.20677 -0.79534 H
atom 1.42668 4.29710 1.21115 C
atom 1.18288 4.55435 2.52311 C
atom 0.38232 4.98220 3.11291 H
atom -4.86315 0.50891 2.49282 O
atom -5.80088 -0.01274 3.36555 C
atom -6.70832 -0.37085 2.89638 H
atom -5.29621 0.07464 4.62432 C
atom -5.21888 -0.05736 6.13829 C
atom -5.22107 -1.08545 6.52281 H
atom -5.95520 0.52996 6.70198 H
atom -3.78153 0.60640 6.03652 C
atom -2.95561 -0.03809 6.36439 H
atom -3.69042 1.57784 6.53935 H
atom -4.00742 0.66817 4.53286 C
atom -3.76362 0.92541 3.22090 C
atom -2.96306 1.35327 2.63109 H
