lattice_vector 8.318148 0.00446905 0.01143053
lattice_vector -0.03538732 10.1942586 0.39541933
lattice_vector 2.26181767 -0.0075825 6.72282135
atom 10.62174 7.92984 5.84670 C
atom 11.79112 7.88328 5.84854 N
atom 9.22373 8.01228 5.84753 C
atom 8.45444 9.58123 5.83083 S
atom 6.89500 8.85825 5.86699 C
atom 6.96046 7.47174 5.90239 C
atom 8.29509 6.98391 5.88658 C
atom 5.91427 6.62142 5.94366 O
atom 6.01852 9.49884 5.81333 H
atom 8.54755 5.92624 5.91148 H
atom 5.06330 7.14045 5.92668 H
atom 1.00648 2.85115 4.65845 C
atom -0.16284 2.80370 4.64686 N
atom 2.40421 2.93612 4.66951 C
atom 3.17022 4.50007 4.81208 S
atom 4.73086 3.78539 4.72002 C
atom 4.66769 2.40601 4.57309 C
atom 3.33413 1.91587 4.54957 C
atom 5.71318 1.56104 4.46049 O
atom 5.60412 4.42116 4.83238 H
atom 3.08280 0.86491 4.43222 H
atom 6.56545 2.07478 4.51171 H
atom -0.07716 2.26131 1.28294 C
atom -1.24654 2.30785 1.28114 N
atom 1.32085 2.17887 1.28214 C
atom 2.09014 0.60992 1.29883 S
atom 3.64958 1.33290 1.26268 C
atom 3.58412 2.71940 1.22728 C
atom 2.24949 3.20723 1.24309 C
atom 4.63031 3.56972 1.18602 O
atom 4.52606 0.69230 1.31636 H
atom 1.99703 4.26490 1.21818 H
atom 5.48128 3.05069 1.20300 H
atom 9.53810 7.33997 2.47119 C
atom 10.70741 7.38747 2.48284 N
atom 8.14037 7.25501 2.46015 C
atom 7.37434 5.69107 2.31758 S
atom 5.81371 6.40577 2.40965 C
atom 5.87689 7.78514 2.55658 C
atom 7.21046 8.27527 2.58010 C
atom 4.83141 8.63012 2.66920 O
atom 4.94044 5.77001 2.29729 H
atom 7.46180 9.32623 2.69745 H
atom 3.97913 8.11638 2.61798 H
