lattice_vector 14.896646 0.0 0.0
lattice_vector 0.0 3.404822 0.0
lattice_vector -4.039105 0.0 3.937229
atom 10.22048 4.71349 0.71291 O
atom 9.01211 4.05832 0.55889 C
atom 8.51710 4.23481 -0.38747 H
atom 8.77526 3.34424 1.69063 C
atom 8.06069 2.42150 2.66709 C
atom 7.94340 1.38218 2.33410 H
atom 7.09247 2.78323 3.03666 H
atom 9.27829 2.66500 3.65454 C
atom 9.86136 1.76588 3.89248 H
atom 9.01202 3.16974 4.59218 H
atom 9.86726 3.56135 2.57496 C
atom 10.73834 4.40150 1.95671 C
atom 11.69026 4.86491 2.18234 H
atom 0.63706 4.71349 3.22432 O
atom 1.84543 4.05832 3.37833 C
atom 2.34045 4.23481 4.32470 H
atom 2.08228 3.34424 2.24659 C
atom 2.79685 2.42150 1.27014 C
atom 2.91414 1.38218 1.60313 H
atom 3.76507 2.78323 0.90057 H
atom 1.57925 2.66500 0.28269 C
atom 0.99618 1.76588 0.04475 H
atom 1.84552 3.16974 -0.65496 H
atom 0.99028 3.56135 1.36227 C
atom 0.11920 4.40150 1.98052 C
atom -0.83272 4.86491 1.75489 H
