lattice_vector 3.590836 0.0 0.0
lattice_vector 0.0 4.284946 0.0
lattice_vector 11.879716 0.0 11.215552
atom 5.16669 4.20253 3.67255 O
atom 5.91204 3.74754 2.59992 C
atom 5.79590 4.32200 1.68980 H
atom 6.61299 2.65747 3.00889 C
atom 7.56077 1.46880 2.94329 C
atom 8.61388 1.71507 2.75585 H
atom 7.26162 0.66313 2.26045 H
atom 7.20435 1.21033 4.46745 C
atom 8.05224 1.30535 5.15814 H
atom 6.69713 0.25664 4.66250 H
atom 6.29464 2.42678 4.37530 C
atom 5.40881 3.38296 4.75986 C
atom 4.87159 3.65155 5.66046 H
atom 11.10655 0.08242 9.28033 O
atom 11.85190 0.53741 8.20769 C
atom 11.73576 -0.03705 7.29758 H
atom 12.55285 1.62747 8.61667 C
atom 13.50063 2.81614 8.55107 C
atom 14.55374 2.56987 8.36363 H
atom 13.20148 3.62181 7.86822 H
atom 13.14421 3.07462 10.07522 C
atom 13.99210 2.97959 10.76592 H
atom 12.63699 4.02831 10.27027 H
atom 12.23449 1.85817 9.98307 C
atom 11.34867 0.90198 10.36764 C
atom 10.81145 0.63340 11.26823 H
