# 
# This is the geometry file that corresponds to the current relaxation step.
# If you do not want this file to be written, set the "write_restart_geometry" flag to .false.
#  aims_uuid : 7A846133-40FA-4504-A14F-F919BA0C22F1                                
# 
lattice_vector      4.97920000      0.00000000      0.00000000
lattice_vector      0.00000000      4.64217900      0.00000000
lattice_vector     11.20811100      0.00000000     12.11311100
atom       7.17378825      0.03533157      8.46623840 O
atom       7.70379866     -0.57802445      9.61328332 C
atom       7.21384836     -1.49923437      9.90638573 H
atom       8.80415712      0.14732552     10.00872628 C
atom      10.00802855      0.55616957     10.82479686 C
atom      10.91633201     -0.08399969     10.67345466 H
atom       9.86954651      0.70725176     11.90133403 H
atom      10.08161420      1.83236390      9.90904908 C
atom      11.01146991      1.92188971      9.29766491 H
atom       9.94552057      2.81736117     10.42159056 H
atom       8.90133499      1.28383754      9.15297532 C
atom       7.86803736      1.22359251      8.26102171 C
atom       7.53535536      1.81131663      7.41043105 H
atom       9.01346697      0.03558036      3.64692756 O
atom       8.48356072     -0.57792011      2.49999963 C
atom       8.97357994     -1.49905256      2.20700843 H
atom       7.38321251      0.14727517      2.10448690 C
atom       6.17935582      0.55597419      1.28840023 C
atom       5.27101014     -0.08416209      1.43978789 H
atom       6.31781718      0.70698747      0.21184878 H
atom       6.10570373      1.83223155      2.20393853 C
atom       5.17583289      1.92183374      2.81531522 H
atom       6.24180792      2.81718971      1.69132938 H
atom       7.28595585      1.28383184      2.96004591 C
atom       8.31916762      1.22376186      3.85196806 C
atom       8.65175684      1.81158748      4.70243156 H
