lattice_vector 4.395918 0.0 0.0
lattice_vector 0.0 14.893904 0.0
lattice_vector -4.767899 0.0 4.618531
atom 1.35439 12.52428 0.61427 O
atom 0.98208 11.57375 -0.31900 C
atom 1.60170 11.54098 -1.20602 H
atom -0.10662 10.91791 0.16209 C
atom -1.26010 9.92710 0.21954 C
atom -0.97156 8.86840 0.24629 H
atom -2.03598 10.06040 -0.54538 H
atom -1.61259 10.55129 1.63483 C
atom -1.52945 9.85200 2.47690 H
atom -2.59073 11.04688 1.68460 H
atom -0.42156 11.47639 1.43116 C
atom 0.48432 12.45655 1.68709 C
atom 0.68645 13.16307 2.48195 H
atom 1.35439 2.36963 0.61427 O
atom 0.98208 3.32015 -0.31900 C
atom 1.60170 3.35292 -1.20602 H
atom -0.10662 3.97599 0.16209 C
atom -1.26010 4.96680 0.21954 C
atom -0.97156 6.02551 0.24629 H
atom -2.03598 4.83350 -0.54538 H
atom -1.61259 4.34261 1.63483 C
atom -1.52945 5.04190 2.47690 H
atom -2.59073 3.84702 1.68460 H
atom -0.42156 3.41752 1.43116 C
atom 0.48432 2.43735 1.68709 C
atom 0.68645 1.73083 2.48195 H
