lattice_vector 23.322964 0.0 0.0
lattice_vector 0.0 3.71485 0.0
lattice_vector 4.185432 0.0 2.598307
atom 18.65561 -1.12175 0.52773 O
atom 18.12424 -0.39889 1.58047 C
atom 17.11770 -0.68025 1.86242 H
atom 19.05802 0.50243 1.98359 C
atom 19.69617 1.62801 2.78444 C
atom 19.86546 1.41328 3.84749 H
atom 19.20621 2.60640 2.69749 H
atom 20.97379 1.44392 1.86210 C
atom 21.87986 1.12536 2.39366 H
atom 21.21840 2.31555 1.24140 H
atom 20.20356 0.33638 1.15788 C
atom 19.93503 -0.66147 0.27525 C
atom 20.44686 -1.16274 -0.53629 H
atom 8.85279 -1.12175 2.07057 O
atom 9.38415 -0.39889 1.01784 C
atom 10.39070 -0.68025 0.73588 H
atom 8.45037 0.50243 0.61472 C
atom 7.81222 1.62801 -0.18613 C
atom 7.64294 1.41328 -1.24918 H
atom 8.30218 2.60640 -0.09919 H
atom 6.53461 1.44392 0.73621 C
atom 5.62853 1.12536 0.20465 H
atom 6.28999 2.31555 1.35691 H
atom 7.30483 0.33638 1.44043 C
atom 7.57336 -0.66147 2.32306 C
atom 7.06154 -1.16274 3.13459 H
