lattice_vector 10.664601 0.0 0.0
lattice_vector 0.0 7.254045 0.0
lattice_vector -4.965121 0.0 3.436313
atom 7.76689 -1.19195 -0.60948 O
atom 7.26432 0.04961 -0.95452 C
atom 6.82329 0.10280 -1.94167 H
atom 7.47485 0.89224 0.09070 C
atom 7.46369 2.17601 0.90762 C
atom 6.46947 2.55314 1.17991 H
atom 8.05230 3.00475 0.49338 H
atom 8.19357 1.35315 2.05089 C
atom 7.62121 1.25790 2.98273 H
atom 9.20420 1.70615 2.29352 H
atom 8.12766 0.15432 1.11585 C
atom 8.29619 -1.11692 0.66596 C
atom 8.71974 -2.04115 1.03774 H
atom 5.28433 8.44600 1.10867 O
atom 4.78176 7.20443 0.76363 C
atom 4.34072 7.15124 -0.22351 H
atom 4.99229 6.36180 1.80886 C
atom 4.98112 5.07803 2.62577 C
atom 3.98691 4.70090 2.89806 H
atom 5.56974 4.24929 2.21154 H
atom 5.71101 5.90089 3.76904 C
atom 5.13865 5.99614 4.70089 H
atom 6.72164 5.54789 4.01168 H
atom 5.64510 7.09972 2.83401 C
atom 5.81363 8.37096 2.38411 C
atom 6.23718 9.29519 2.75590 H
