lattice_vector 5.069404 0.0 0.0
lattice_vector 0.0 13.866099 0.0
lattice_vector 2.656061 0.0 4.568246
atom 4.53631 11.95602 3.70163 O
atom 3.85463 10.97137 3.00962 C
atom 3.39207 11.30112 2.08815 H
atom 3.96236 9.81362 3.71308 C
atom 3.77953 8.34714 4.07576 C
atom 4.23752 7.62934 3.38306 H
atom 2.74596 8.03448 4.27284 H
atom 4.63783 8.65049 5.37506 C
atom 5.58928 8.10600 5.43242 H
atom 4.09777 8.51529 6.32105 H
atom 4.73284 10.08525 4.87678 C
atom 5.07264 11.40078 4.84907 C
atom 5.63138 12.08976 5.46950 H
atom 3.20828 1.91008 1.41751 O
atom 2.52660 2.89473 0.72550 C
atom 2.06404 2.56498 -0.19597 H
atom 2.63433 4.05248 1.42896 C
atom 2.45150 5.51896 1.79164 C
atom 2.90949 6.23676 1.09893 H
atom 1.41793 5.83162 1.98872 H
atom 3.30980 5.21561 3.09094 C
atom 4.26125 5.76010 3.14830 H
atom 2.76974 5.35081 4.03693 H
atom 3.40481 3.78085 2.59266 C
atom 3.74461 2.46532 2.56495 C
atom 4.30335 1.77634 3.18537 H
