lattice_vector 3.08114 0.0 0.0
lattice_vector 0.0 14.232848 0.0
lattice_vector 0.980374 0.0 4.568196
atom 2.16399 1.81611 0.81691 O
atom 2.80312 2.62632 1.73788 C
atom 3.19838 2.10776 2.60198 H
atom 2.75321 3.90411 1.27788 C
atom 2.96792 5.40996 1.23482 C
atom 4.01423 5.73555 1.17120 H
atom 2.47009 5.98109 2.02907 H
atom 2.19611 5.39368 -0.15116 C
atom 2.79668 5.71195 -1.01314 H
atom 1.25183 5.95329 -0.15468 H
atom 2.06277 3.88922 0.03502 C
atom 1.71177 2.60271 -0.22679 C
atom 1.19267 2.06495 -1.00984 H
atom 2.16399 12.41674 0.81691 O
atom 2.80312 11.60653 1.73788 C
atom 3.19838 12.12508 2.60198 H
atom 2.75321 10.32874 1.27788 C
atom 2.96792 8.82289 1.23482 C
atom 4.01423 8.49730 1.17120 H
atom 2.47009 8.25176 2.02907 H
atom 2.19611 8.83917 -0.15116 C
atom 2.79668 8.52090 -1.01314 H
atom 1.25183 8.27956 -0.15468 H
atom 2.06277 10.34363 0.03502 C
atom 1.71177 11.63014 -0.22679 C
atom 1.19267 12.16790 -1.00984 H
