lattice_vector 17.747536 0.0 0.0
lattice_vector 0.0 3.372268 0.0
lattice_vector -2.240121 0.0 3.771076
atom 6.32611 2.36534 0.51147 O
atom 5.21065 2.55427 1.30720 C
atom 5.38410 3.14006 2.20083 H
atom 4.16241 1.92273 0.71628 C
atom 2.74272 1.41879 0.50169 C
atom 1.98364 2.19723 0.35109 H
atom 2.37418 0.70987 1.25433 H
atom 3.27464 0.74812 -0.83403 C
atom 2.82068 1.13825 -1.75421 H
atom 3.21519 -0.34781 -0.84989 H
atom 4.63890 1.32294 -0.48156 C
atom 5.96390 1.60623 -0.58630 C
atom 6.76805 1.39745 -1.28025 H
atom 9.18131 2.36534 3.25961 O
atom 10.29676 2.55427 2.46387 C
atom 10.12331 3.14006 1.57025 H
atom 11.34500 1.92273 3.05479 C
atom 12.76470 1.41879 3.26939 C
atom 13.52377 2.19723 3.41999 H
atom 13.13323 0.70987 2.51675 H
atom 12.23277 0.74812 4.60511 C
atom 12.68673 1.13825 5.52528 H
atom 12.29223 -0.34781 4.62097 H
atom 10.86852 1.32294 4.25264 C
atom 9.54352 1.60623 4.35738 C
atom 8.73937 1.39745 5.05133 H
