lattice_vector 4.450718 0.0 0.0
lattice_vector 0.0 13.150805 0.0
lattice_vector -2.848287 0.0 4.624109
atom -1.32071 7.51017 1.78454 O
atom -1.92902 6.40582 1.21579 C
atom -2.58274 6.62655 0.38169 H
atom -1.51586 5.30356 1.89488 C
atom -1.38807 3.83858 2.28607 C
atom -0.93319 3.18632 1.52945 H
atom -2.30874 3.36480 2.65043 H
atom -0.39541 4.31885 3.42663 C
atom 0.63085 3.94172 3.32875 H
atom -0.74555 4.12427 4.44858 H
atom -0.62508 5.73393 2.91611 C
atom -0.52087 7.08618 2.83002 C
atom 0.00621 7.87655 3.34897 H
atom 2.92314 14.08558 2.83957 O
atom 3.53145 12.98122 3.40832 C
atom 4.18517 13.20196 4.24242 H
atom 3.11830 11.87896 2.72923 C
atom 2.99050 10.41398 2.33804 C
atom 2.53562 9.76173 3.09466 H
atom 3.91118 9.94020 1.97368 H
atom 1.99784 10.89425 1.19748 C
atom 0.97158 10.51713 1.29535 H
atom 2.34798 10.69967 0.17553 H
atom 2.22751 12.30933 1.70800 C
atom 2.12330 13.66158 1.79409 C
atom 1.59622 14.45196 1.27514 H
