lattice_vector 5.241052 0.0 0.0
lattice_vector 0.0 15.788077 0.0
lattice_vector -2.374417 0.0 3.002271
atom 0.82295 13.54941 1.14302 O
atom 0.09037 12.37679 1.18025 C
atom -0.97842 12.50508 1.06606 H
atom 0.95801 11.34597 1.35753 C
atom 1.45344 9.91852 1.53771 C
atom 1.28697 9.25010 0.68311 H
atom 1.11420 9.41236 2.45072 H
atom 2.91550 10.52830 1.62395 C
atom 3.59231 10.20970 0.82056 H
atom 3.41779 10.37589 2.58797 H
atom 2.26846 11.89242 1.43333 C
atom 2.16182 13.24064 1.30000 C
atom 2.82973 14.09241 1.28583 H
atom 0.82295 2.23867 1.14302 O
atom 0.09037 3.41129 1.18025 C
atom -0.97842 3.28299 1.06606 H
atom 0.95801 4.44211 1.35753 C
atom 1.45344 5.86956 1.53771 C
atom 1.28697 6.53798 0.68311 H
atom 1.11420 6.37572 2.45072 H
atom 2.91550 5.25978 1.62395 C
atom 3.59231 5.57838 0.82056 H
atom 3.41779 5.41219 2.58797 H
atom 2.26846 3.89566 1.43333 C
atom 2.16182 2.54743 1.30000 C
atom 2.82973 1.69567 1.28583 H
