lattice_vector 3.561874 0.0 0.0
lattice_vector 0.0 16.250658 0.0
lattice_vector 1.689129 0.0 5.587322
atom 3.52127 9.18922 1.65375 O
atom 3.17261 8.43286 0.54945 C
atom 2.92681 9.00668 -0.33492 H
atom 3.24000 7.12189 0.90111 C
atom 3.15662 5.60806 0.77111 C
atom 3.86557 5.15549 0.06584 H
atom 2.15549 5.20560 0.56955 H
atom 3.60324 5.53911 2.29186 C
atom 4.56831 5.04492 2.46340 H
atom 2.85805 5.09933 2.96723 H
atom 3.64171 7.06015 2.26362 C
atom 3.80768 8.33532 2.70321 C
atom 4.09463 8.82671 3.62409 H
atom 1.72973 17.31455 3.93358 O
atom 2.07839 16.55819 5.03787 C
atom 2.32419 17.13201 5.92224 H
atom 2.01100 15.24722 4.68622 C
atom 2.09439 13.73339 4.81621 C
atom 1.38543 13.28082 5.52148 H
atom 3.09551 13.33092 5.01777 H
atom 1.64776 13.66444 3.29547 C
atom 0.68269 13.17025 3.12392 H
atom 2.39295 13.22466 2.62010 H
atom 1.60929 15.18548 3.32370 C
atom 1.44332 16.46065 2.88411 C
atom 1.15638 16.95204 1.96323 H
