lattice_vector 10.488379 0.0 0.0
lattice_vector 0.0 5.696373 0.0
lattice_vector 6.458422 0.0 4.500361
atom 6.80848 1.39445 -2.18949 O
atom 6.73566 0.34624 -1.29000 C
atom 6.47364 -0.60922 -1.72615 H
atom 7.02718 0.83270 -0.05500 C
atom 7.26276 0.84928 1.44825 C
atom 8.11769 0.25647 1.79823 H
atom 6.38917 0.60442 2.06611 H
atom 7.55282 2.40184 1.29882 C
atom 8.57402 2.70424 1.56475 H
atom 6.84445 3.05186 1.82847 H
atom 7.28858 2.22385 -0.18924 C
atom 7.14892 2.54526 -1.50227 C
atom 7.23385 3.43308 -2.11577 H
atom 10.03769 4.30193 0.06069 O
atom 9.96487 5.35013 0.96018 C
atom 9.70285 6.30559 0.52403 H
atom 10.25639 4.86367 2.19518 C
atom 10.49197 4.84709 3.69843 C
atom 11.34690 5.43990 4.04841 H
atom 9.61838 5.09196 4.31629 H
atom 10.78203 3.29453 3.54900 C
atom 11.80323 2.99213 3.81493 H
atom 10.07366 2.64451 4.07865 H
atom 10.51779 3.47253 2.06094 C
atom 10.37813 3.15111 0.74791 C
atom 10.46306 2.26329 0.13442 H
