title geometry
lattice_vector 10.488379 0.000000 0.000000
lattice_vector 0.000000 5.696373 0.000000
lattice_vector 6.458422 0.000000 4.500361
-78.291348 -74.089599 120.974175 7.114464 1.512149 -0.373297 /home/trose/genarris_mpi4py/merged_4_17_2019/tests/full_diverse_workflow/harris_single_molecule_prep_aims_dir/geometry
128.067132 -81.424555 104.912739 10.343675 4.184220 1.876883 /home/trose/genarris_mpi4py/merged_4_17_2019/tests/full_diverse_workflow/harris_single_molecule_prep_aims_dir/geometry
