lattice_vector 4.126169154512693 -2.220446049250313e-16 0.0
lattice_vector -1.8090708420705977 5.493828359966298 0.0
lattice_vector 7.108470305855007e-16 9.824708244225077e-16 11.609013
atom 0.00000 0.00000 7.20305 C
atom 0.73478 0.96299 6.50380 C
atom 0.73478 0.96299 5.10521 C
atom 0.00000 0.00000 4.40596 C
atom -0.73478 -0.96299 5.10521 C
atom -0.73478 -0.96299 6.50380 C
atom 0.00000 0.00000 8.29446 H
atom 1.30809 1.71436 7.04964 H
atom 1.30809 1.71436 4.55937 H
atom 0.00000 0.00000 3.31455 H
atom -1.30809 -1.71436 4.55937 H
atom -1.30809 -1.71436 7.04964 H
atom -0.90454 2.74691 1.39855 C
atom -0.16975 3.70991 0.69929 C
atom -0.16975 3.70991 -0.69929 C
atom -0.90454 2.74691 -1.39855 C
atom -1.63932 1.78392 -0.69929 C
atom -1.63932 1.78392 0.69929 C
atom -0.90454 2.74691 2.48995 H
atom 0.40355 4.46128 1.24513 H
atom 0.40355 4.46128 -1.24513 H
atom -0.90454 2.74691 -2.48995 H
atom -2.21262 1.03255 -1.24513 H
atom -2.21262 1.03255 1.24513 H
