lattice_vector 13.151529 0.0 0.0
lattice_vector 0.0 5.008867 0.0
lattice_vector 3.00636 0.0 4.198788
atom 7.86907 4.53490 3.86038 O
atom 6.91797 5.11434 3.04016 C
atom 7.31148 5.80669 2.30695 H
atom 5.70110 4.62914 3.40164 C
atom 4.19341 4.42332 3.39810 C
atom 3.78171 3.96783 2.48823 H
atom 3.59510 5.30865 3.64925 H
atom 4.41520 3.41225 4.60037 C
atom 4.12932 2.37465 4.38435 H
atom 3.94689 3.71653 5.54533 H
atom 5.90013 3.72189 4.47817 C
atom 7.23265 3.68016 4.74182 C
atom 7.88934 3.16987 5.43476 H
atom 8.28881 4.53490 0.33841 O
atom 9.23992 5.11434 1.15863 C
atom 8.84641 5.80669 1.89184 H
atom 10.45679 4.62914 0.79715 C
atom 11.96448 4.42332 0.80068 C
atom 12.37618 3.96783 1.71056 H
atom 12.56279 5.30865 0.54954 H
atom 11.74269 3.41225 -0.40158 C
atom 12.02857 2.37465 -0.18557 H
atom 12.21099 3.71653 -1.34654 H
atom 10.25776 3.72189 -0.27938 C
atom 8.92524 3.68016 -0.54303 C
atom 8.26855 3.16987 -1.23598 H
