lattice_vector 5.438209 0.0 0.0
lattice_vector 4.312571047231621e-16 7.042963 0.0
lattice_vector 4.3125712661138177e-16 -3.521482 6.099384999999998
atom 1.35955 1.35883 3.73500 C
atom 1.35955 0.39255 2.72384 C
atom 1.35955 -0.96629 3.05510 C
atom 1.35955 -1.35883 4.39751 C
atom 1.35955 -0.39255 5.40867 C
atom 1.35955 0.96629 5.07741 C
atom 1.35955 2.41919 3.47651 H
atom 1.35955 0.69886 1.67630 H
atom 1.35955 -1.72033 2.26605 H
atom 1.35955 -2.41919 4.65600 H
atom 1.35955 -0.69886 6.45621 H
atom 1.35955 1.72033 5.86647 H
atom 4.07866 2.55519 3.04429 C
atom 4.07866 2.16265 1.70188 C
atom 4.07866 3.12894 0.69072 C
atom 4.07866 4.48777 1.02197 C
atom 4.07866 4.88032 2.36438 C
atom 4.07866 3.91403 3.37554 C
atom 4.07866 1.80115 3.83334 H
atom 4.07866 1.10229 1.44339 H
atom 4.07866 2.82262 -0.35683 H
atom 4.07866 5.24181 0.23292 H
atom 4.07866 5.94067 2.62287 H
atom 4.07866 4.22035 4.42308 H
