lattice_vector 5.967302 0.0 0.0
lattice_vector 0.0 11.126525 0.0
lattice_vector 4.400398 0.0 3.393997
atom 6.59637 8.54850 1.49068 O
atom 5.89967 7.61180 0.74884 C
atom 5.53220 7.96940 -0.20451 H
atom 5.87125 6.45266 1.45766 C
atom 5.55725 5.00472 1.80466 C
atom 6.01325 4.25277 1.14781 H
atom 4.49210 4.76765 1.92345 H
atom 6.33537 5.25212 3.16489 C
atom 7.23841 4.64132 3.29311 H
atom 5.71770 5.16033 4.06761 H
atom 6.56991 6.67405 2.67606 C
atom 7.00414 7.96180 2.67476 C
atom 7.56276 8.61202 3.33580 H
atom 3.77133 2.98524 1.90332 O
atom 4.46803 2.04854 2.64515 C
atom 4.83550 2.40614 3.59851 H
atom 4.49645 0.88940 1.93633 C
atom 4.81045 -0.55854 1.58934 C
atom 4.35445 -1.31050 2.24619 H
atom 5.87560 -0.79562 1.47055 H
atom 4.03233 -0.31114 0.22911 C
atom 3.12929 -0.92194 0.10089 H
atom 4.65000 -0.40293 -0.67361 H
atom 3.79779 1.11078 0.71794 C
atom 3.36356 2.39853 0.71924 C
atom 2.80494 3.04875 0.05820 H
