lattice_vector 18.559254 0.0 0.0
lattice_vector 0.0 4.382031 0.0
lattice_vector 3.289222 0.0 3.419244
atom 14.75657 1.62549 3.30223 O
atom 14.25024 1.15948 2.10240 C
atom 13.51214 0.37315 2.19564 H
atom 14.84888 1.85167 1.09775 C
atom 15.19207 2.29421 -0.31714 C
atom 14.37057 2.75741 -0.87876 H
atom 15.66334 1.53091 -0.94970 H
atom 16.20358 3.32322 0.34232 C
atom 15.96651 4.37925 0.15900 H
atom 17.25832 3.15104 0.09190 H
atom 15.75431 2.77489 1.68892 C
atom 15.68143 2.61887 3.03695 C
atom 16.14288 3.05641 3.91299 H
atom 7.09191 1.62549 0.11701 O
atom 7.59824 1.15948 1.31684 C
atom 8.33634 0.37315 1.22360 H
atom 6.99960 1.85167 2.32150 C
atom 6.65641 2.29421 3.73639 C
atom 7.47791 2.75741 4.29801 H
atom 6.18513 1.53091 4.36895 H
atom 5.64490 3.32322 3.07693 C
atom 5.88197 4.37925 3.26024 H
atom 4.59015 3.15104 3.32734 H
atom 6.09416 2.77489 1.73033 C
atom 6.16705 2.61887 0.38229 C
atom 5.70560 3.05641 -0.49375 H
