title geometry
lattice_vector 18.559254 0.000000 0.000000
lattice_vector 0.000000 4.382031 0.000000
lattice_vector 3.289222 0.000000 3.419244
-158.215736 -85.948029 -57.068843 15.236010 2.228979 1.625326 /home/trose/genarris_mpi4py/merged_4_17_2019/tests/full_diverse_workflow/harris_single_molecule_prep_aims_dir/geometry
-21.783392 -94.051806 122.931699 6.612467 2.228979 1.793909 /home/trose/genarris_mpi4py/merged_4_17_2019/tests/full_diverse_workflow/harris_single_molecule_prep_aims_dir/geometry
