lattice_vector 3.567574 0.0 0.0
lattice_vector 0.0 13.157197 0.0
lattice_vector 3.515206 0.0 4.33118
atom 5.16835 5.28210 1.35588 O
atom 4.25337 4.52931 0.64227 C
atom 4.04187 4.89616 -0.35397 H
atom 3.85926 3.49312 1.42828 C
atom 3.12020 2.23413 1.85756 C
atom 3.35736 1.32913 1.28349 H
atom 2.02897 2.32828 1.92978 H
atom 3.88769 2.35882 3.24043 C
atom 4.56536 1.52482 3.46449 H
atom 3.23865 2.52769 4.10938 H
atom 4.54825 3.60411 2.66706 C
atom 5.34258 4.70477 2.60042 C
atom 6.04413 5.21790 3.24566 H
atom 5.16835 7.87510 1.35588 O
atom 4.25337 8.62788 0.64227 C
atom 4.04187 8.26104 -0.35397 H
atom 3.85926 9.66408 1.42828 C
atom 3.12020 10.92306 1.85756 C
atom 3.35736 11.82807 1.28349 H
atom 2.02897 10.82891 1.92978 H
atom 3.88769 10.79838 3.24043 C
atom 4.56536 11.63238 3.46449 H
atom 3.23865 10.62951 4.10938 H
atom 4.54825 9.55309 2.66706 C
atom 5.34258 8.45242 2.60042 C
atom 6.04413 7.93930 3.24566 H
