lattice_vector 21.724941 0.0 0.0
lattice_vector 0.0 2.837659 0.0
lattice_vector -4.581829 0.0 3.217895
atom 13.88568 2.71390 2.32144 O
atom 12.79888 2.45024 1.50752 C
atom 12.92716 2.73668 0.47152 H
atom 11.83132 1.87927 2.27214 C
atom 10.49616 1.24890 2.64026 C
atom 10.28314 0.28329 2.16374 H
atom 9.61905 1.89864 2.52464 H
atom 11.05158 1.14529 4.12271 C
atom 11.15658 0.12034 4.50146 H
atom 10.49600 1.73778 4.86104 H
atom 12.32974 1.78510 3.60043 C
atom 13.58684 2.30135 3.60715 C
atom 14.37522 2.46231 4.33128 H
atom 3.25743 2.71390 0.89645 O
atom 4.34423 2.45024 1.71038 C
atom 4.21595 2.73668 2.74638 H
atom 5.31179 1.87927 0.94575 C
atom 6.64695 1.24890 0.57763 C
atom 6.85997 0.28329 1.05415 H
atom 7.52407 1.89864 0.69326 H
atom 6.09153 1.14529 -0.90482 C
atom 5.98654 0.12034 -1.28356 H
atom 6.64711 1.73778 -1.64315 H
atom 4.81337 1.78510 -0.38253 C
atom 3.55627 2.30135 -0.38926 C
atom 2.76789 2.46231 -1.11339 H
