title geometry
lattice_vector 21.724941 0.000000 0.000000
lattice_vector 0.000000 2.837659 0.000000
lattice_vector -4.581829 0.000000 3.217895
-60.741313 -12.884482 21.134091 12.299600 1.940245 2.861691 /home/trose/genarris_mpi4py/merged_4_17_2019/tests/full_diverse_workflow/harris_single_molecule_prep_aims_dir/geometry
-119.257749 -167.115724 -158.864913 4.843514 1.940245 0.356195 /home/trose/genarris_mpi4py/merged_4_17_2019/tests/full_diverse_workflow/harris_single_molecule_prep_aims_dir/geometry
