lattice_vector 3.744435 0.0 0.0
lattice_vector 0.0 15.752631 0.0
lattice_vector 1.417251 0.0 5.462111
atom 1.92512 14.74451 0.03528 O
atom 1.22432 14.04752 -0.93230 C
atom 1.30652 14.45243 -1.93285 H
atom 0.60126 13.00227 -0.32725 C
atom -0.26012 11.75791 -0.16878 C
atom 0.10318 10.86321 -0.69065 H
atom -1.32586 11.88887 -0.39662 H
atom 0.09741 11.81205 1.37593 C
atom 0.66470 10.94773 1.74489 H
atom -0.76225 11.97708 2.03818 H
atom 0.92294 13.05001 1.05690 C
atom 1.73290 14.12300 1.25566 C
atom 2.24141 14.59038 2.08920 H
atom 2.63374 1.00812 2.76633 O
atom 1.93294 1.70511 1.79875 C
atom 2.01515 1.30020 0.79821 H
atom 1.30989 2.75036 2.40380 C
atom 0.44850 3.99472 2.56227 C
atom 0.81181 4.88942 2.04040 H
atom -0.61724 3.86377 2.33443 H
atom 0.80603 3.94058 4.10698 C
atom 1.37332 4.80490 4.47595 H
atom -0.05363 3.77555 4.76924 H
atom 1.63157 2.70262 3.78795 C
atom 2.44152 1.62963 3.98671 C
atom 2.95004 1.16226 4.82026 H
