lattice_vector 17.158316 0.0 0.0
lattice_vector 0.0 5.734764 0.0
lattice_vector -3.795881 0.0 2.95074
atom 10.89128 3.72387 -0.60348 O
atom 10.99724 2.36255 -0.38284 C
atom 10.16506 1.77651 -0.75140 H
atom 12.17013 2.13281 0.26398 C
atom 13.28923 1.36324 0.95021 C
atom 13.83919 0.66048 0.31107 H
atom 13.00858 0.84826 1.87805 H
atom 14.00559 2.76293 1.16142 C
atom 14.96928 2.86616 0.64602 H
atom 14.13520 3.05584 2.21130 H
atom 12.81277 3.38714 0.45192 C
atom 12.01306 4.34532 -0.08585 C
atom 12.03312 5.42101 -0.20555 H
atom 2.47115 3.72387 3.55422 O
atom 2.36520 2.36255 3.33358 C
atom 3.19737 1.77651 3.70214 H
atom 1.19230 2.13281 2.68675 C
atom 0.07320 1.36324 2.00053 C
atom -0.47675 0.66048 2.63967 H
atom 0.35386 0.84826 1.07269 H
atom -0.64315 2.76293 1.78932 C
atom -1.60685 2.86616 2.30472 H
atom -0.77276 3.05584 0.73944 H
atom 0.54966 3.38714 2.49882 C
atom 1.34937 4.34532 3.03659 C
atom 1.32932 5.42101 3.15629 H
