title geometry
lattice_vector 13.566267 0.000000 0.000000
lattice_vector 0.000000 6.544241 0.000000
lattice_vector -1.735783 0.000000 2.502466
0.000000 0.000000 0.000000 1.300564 5.463387 2.261876 /home/trose/genarris_mpi4py/merged_4_17_2019/tests/full_diverse_workflow/harris_single_molecule_prep_aims_dir/geometry
92.193397 -173.021912 93.046535 10.529922 5.463387 0.240581 /home/trose/genarris_mpi4py/merged_4_17_2019/tests/full_diverse_workflow/harris_single_molecule_prep_aims_dir/geometry
