lattice_vector 17.282053 0.0 0.0
lattice_vector 0.0 2.891943 0.0
lattice_vector 4.554344 0.0 4.336444
atom 19.14908 3.04365 5.46099 O
atom 19.80369 2.43675 4.40445 C
atom 20.88419 2.45895 4.46648 H
atom 18.86335 1.96113 3.54633 C
atom 18.26899 1.27726 2.32379 C
atom 18.47152 0.20173 2.23991 H
atom 18.49350 1.75306 1.36042 H
atom 16.84431 1.63609 2.92249 C
atom 16.22488 0.76764 3.18155 H
atom 16.24886 2.32111 2.30521 H
atom 17.58654 2.28145 4.08371 C
atom 17.78542 2.94307 5.25399 C
atom 17.17379 3.38902 6.02785 H
atom 2.68731 1.59767 -1.12454 O
atom 2.03270 0.99078 -0.06801 C
atom 0.95221 1.01297 -0.13003 H
atom 2.97305 0.51515 0.79012 C
atom 3.56741 -0.16871 2.01266 C
atom 3.36488 -1.24424 2.09653 H
atom 3.34290 0.30709 2.97603 H
atom 4.99208 0.19012 1.41396 C
atom 5.61151 -0.67833 1.15490 H
atom 5.58754 0.87514 2.03123 H
atom 4.24986 0.83548 0.25274 C
atom 4.05097 1.49710 -0.91755 C
atom 4.66261 1.94305 -1.69140 H
