lattice_vector 5.41369915 0.0 0.0
lattice_vector 0.0 7.05010384 0.0
lattice_vector 0.0 0.0 7.0501382
atom 1.18884 0.00000 4.92078 C
atom 1.18884 1.21238 4.22419 C
atom 1.18884 1.21238 2.82595 C
atom 1.18884 -0.00000 2.12936 C
atom 1.18884 -1.21238 2.82595 C
atom 1.18884 -1.21238 4.22419 C
atom 1.18882 0.00000 6.01111 H
atom 1.18885 2.15273 4.77642 H
atom 1.18885 2.15273 2.27372 H
atom 1.18882 -0.00000 1.03903 H
atom 1.18885 -2.15273 2.27372 H
atom 1.18885 -2.15273 4.77642 H
atom 3.89578 2.12934 0.00000 C
atom 3.89577 2.82593 1.21238 C
atom 3.89577 4.22418 1.21238 C
atom 3.89578 4.92076 -0.00000 C
atom 3.89577 4.22418 -1.21238 C
atom 3.89577 2.82593 -1.21238 C
atom 3.89579 1.03901 0.00000 H
atom 3.89577 2.27370 2.15273 H
atom 3.89577 4.77640 2.15273 H
atom 3.89579 6.01109 -0.00000 H
atom 3.89577 4.77640 -2.15273 H
atom 3.89577 2.27370 -2.15273 H
