lattice_vector 19.891041 0.0 0.0
lattice_vector 0.0 3.368029 0.0
lattice_vector 4.715662 0.0 3.183263
atom 7.27449 0.25393 2.83337 O
atom 7.72965 0.68804 1.60151 C
atom 8.79086 0.89703 1.55724 H
atom 6.66812 0.73191 0.75412 C
atom 5.88024 0.95247 -0.52890 C
atom 6.15269 0.29924 -1.36788 H
atom 5.84336 1.98893 -0.88843 H
atom 4.59757 0.48726 0.28055 C
atom 4.12943 -0.43265 -0.09310 H
atom 3.82255 1.25683 0.38988 H
atom 5.51887 0.31354 1.47924 C
atom 5.91303 0.02664 2.74778 C
atom 5.45115 -0.31913 3.66371 H
atom 17.33222 0.25393 0.34990 O
atom 16.87705 0.68804 1.58176 C
atom 15.81584 0.89703 1.62603 H
atom 17.93858 0.73191 2.42915 C
atom 18.72646 0.95247 3.71216 C
atom 18.45401 0.29924 4.55114 H
atom 18.76334 1.98893 4.07169 H
atom 20.00914 0.48726 2.90271 C
atom 20.47728 -0.43265 3.27636 H
atom 20.78415 1.25683 2.79338 H
atom 19.08784 0.31354 1.70402 C
atom 18.69367 0.02664 0.43548 C
atom 19.15555 -0.31913 -0.48044 H
