lattice_vector 10.80639 0.0 0.0
lattice_vector 0.0 5.638269 0.0
lattice_vector -0.596318 0.0 4.51796
atom 7.98362 5.48004 -0.84397 O
atom 7.35623 4.30348 -1.21165 C
atom 6.85662 4.33582 -2.17141 H
atom 7.55263 3.39593 -0.21937 C
atom 7.47348 2.08048 0.54146 C
atom 7.96547 1.22616 0.05884 H
atom 6.46647 1.77524 0.85390 H
atom 8.33284 2.78346 1.67469 C
atom 9.31902 2.33310 1.84684 H
atom 7.81977 2.88584 2.63964 H
atom 8.32407 4.02558 0.79554 C
atom 8.57574 5.29882 0.39260 C
atom 9.09872 6.16481 0.77777 H
atom 2.22645 5.48004 5.36193 O
atom 2.85384 4.30348 5.72961 C
atom 3.35346 4.33582 6.68937 H
atom 2.65744 3.39593 4.73733 C
atom 2.73659 2.08048 3.97650 C
atom 2.24460 1.22616 4.45912 H
atom 3.74360 1.77524 3.66406 H
atom 1.87723 2.78346 2.84327 C
atom 0.89106 2.33310 2.67112 H
atom 2.39030 2.88584 1.87832 H
atom 1.88601 4.02558 3.72242 C
atom 1.63434 5.29882 4.12536 C
atom 1.11135 6.16481 3.74019 H
