title geometry
lattice_vector 5.255702 0.000000 0.000000
lattice_vector 0.000000 5.537614 0.000000
lattice_vector 5.998187 0.000000 8.950183
97.316406 -126.541305 -105.646256 7.054433 4.519135 9.275021 /home/trose/genarris_mpi4py/merged_4_17_2019/tests/full_diverse_workflow/harris_single_molecule_prep_aims_dir/geometry
-165.897141 -144.427537 -69.621901 4.055340 1.018476 4.799930 /home/trose/genarris_mpi4py/merged_4_17_2019/tests/full_diverse_workflow/harris_single_molecule_prep_aims_dir/geometry
