lattice_vector 10.599358 0.0 0.0
lattice_vector 0.0 4.813071 0.0
lattice_vector 0.096547 0.0 4.309026
atom 6.01388 2.12361 5.15233 O
atom 6.58578 0.89174 5.41414 C
atom 6.03052 0.27088 6.10553 H
atom 7.73655 0.80291 4.69674 C
atom 9.02876 0.21645 4.14739 C
atom 8.91252 -0.67946 3.52396 H
atom 9.81522 0.02817 4.88962 H
atom 9.19618 1.56886 3.33508 C
atom 9.17872 1.45230 2.24370 H
atom 10.07789 2.16141 3.61134 H
atom 7.88576 2.01441 3.96762 C
atom 6.82154 2.80681 4.26157 C
atom 6.46426 3.79086 3.98621 H
atom 4.68203 2.12361 -0.84330 O
atom 4.11013 0.89174 -1.10512 C
atom 4.66538 0.27088 -1.79650 H
atom 2.95936 0.80291 -0.38771 C
atom 1.66714 0.21645 0.16163 C
atom 1.78338 -0.67946 0.78506 H
atom 0.88069 0.02817 -0.58059 H
atom 1.49973 1.56886 0.97395 C
atom 1.51719 1.45230 2.06533 H
atom 0.61802 2.16141 0.69769 H
atom 2.81015 2.01441 0.34141 C
atom 3.87436 2.80681 0.04746 C
atom 4.23164 3.79086 0.32282 H
