lattice_vector 3.058021 0.0 0.0
lattice_vector 0.0 14.580271 0.0
lattice_vector -0.288437 0.0 5.038143
atom 1.92924 5.81217 -0.51509 O
atom 1.30312 4.74939 -1.14086 C
atom 1.06234 4.91388 -2.18334 H
atom 1.15992 3.75160 -0.22940 C
atom 0.76947 2.40017 0.35088 C
atom 1.28180 1.53341 -0.08624 H
atom -0.30795 2.19261 0.38148 H
atom 1.38432 2.90803 1.72236 C
atom 2.24943 2.33278 2.07687 H
atom 0.66035 2.99580 2.54273 H
atom 1.71232 4.20628 0.99932 C
atom 2.17638 5.46815 0.80138 C
atom 2.66786 6.23440 1.38716 H
atom 1.92924 8.76810 -0.51509 O
atom 1.30312 9.83088 -1.14086 C
atom 1.06234 9.66639 -2.18334 H
atom 1.15992 10.82867 -0.22940 C
atom 0.76947 12.18010 0.35088 C
atom 1.28180 13.04686 -0.08624 H
atom -0.30795 12.38766 0.38148 H
atom 1.38432 11.67225 1.72236 C
atom 2.24943 12.24749 2.07687 H
atom 0.66035 11.58447 2.54273 H
atom 1.71232 10.37399 0.99932 C
atom 2.17638 9.11212 0.80138 C
atom 2.66786 8.34587 1.38716 H
