title geometry
lattice_vector 3.058021 0.000000 0.000000
lattice_vector 0.000000 14.580271 0.000000
lattice_vector -0.288437 0.000000 5.038143
-57.860773 -11.509307 66.392580 1.495192 4.202138 0.275755 /home/trose/genarris_mpi4py/merged_4_17_2019/tests/full_diverse_workflow/harris_single_molecule_prep_aims_dir/geometry
-167.707501 -40.455882 39.441858 1.495192 10.378129 0.275755 /home/trose/genarris_mpi4py/merged_4_17_2019/tests/full_diverse_workflow/harris_single_molecule_prep_aims_dir/geometry
