lattice_vector 3.197709 0.0 0.0
lattice_vector 0.0 9.431628 0.0
lattice_vector -1.301477 0.0 6.858002
atom 1.65343 6.28772 -0.01362 O
atom 2.22418 7.07974 -0.99345 C
atom 2.13847 6.68993 -1.99969 H
atom 2.75621 8.17497 -0.38992 C
atom 3.48079 9.50441 -0.23798 C
atom 2.99520 10.36378 -0.71812 H
atom 4.54202 9.49885 -0.51840 H
atom 3.20769 9.37706 1.31961 C
atom 2.56670 10.16406 1.73766 H
atom 4.11180 9.29524 1.93663 H
atom 2.51011 8.06147 1.00585 C
atom 1.83506 6.90030 1.21288 C
atom 1.42311 6.36087 2.05616 H
atom 0.24280 1.57191 6.87162 O
atom -0.32794 2.36393 7.85146 C
atom -0.24224 1.97412 8.85769 H
atom -0.85998 3.45915 7.24792 C
atom -1.58456 4.78860 7.09598 C
atom -1.09897 5.64796 7.57612 H
atom -2.64579 4.78304 7.37640 H
atom -1.31146 4.66124 5.53839 C
atom -0.67047 5.44824 5.12034 H
atom -2.21557 4.57943 4.92137 H
atom -0.61388 3.34565 5.85215 C
atom 0.06117 2.18448 5.64512 C
atom 0.47312 1.64506 4.80184 H
