lattice_vector 29.324156 0.0 0.0
lattice_vector 0.0 2.742972 0.0
lattice_vector 3.576208 0.0 2.798302
atom 10.48828 2.66255 -0.71345 O
atom 10.64851 2.17658 0.57157 C
atom 11.62947 1.77170 0.78507 H
atom 9.47579 2.35231 1.23541 C
atom 8.46446 2.31213 2.37169 C
atom 8.71754 2.91981 3.25004 H
atom 8.17395 1.30926 2.71038 H
atom 7.44075 2.99412 1.36978 C
atom 7.10207 3.99371 1.67164 H
atom 6.56147 2.38282 1.12890 H
atom 8.55883 2.96488 0.33786 C
atom 9.19912 3.14494 -0.84725 C
atom 8.96479 3.55219 -1.82247 H
atom 22.41209 2.66255 3.51175 O
atom 22.25186 2.17658 2.22673 C
atom 21.27090 1.77170 2.01323 H
atom 23.42458 2.35231 1.56290 C
atom 24.43591 2.31213 0.42661 C
atom 24.18282 2.91981 -0.45174 H
atom 24.72641 1.30926 0.08792 H
atom 25.45961 2.99412 1.42852 C
atom 25.79829 3.99371 1.12666 H
atom 26.33889 2.38282 1.66941 H
atom 24.34153 2.96488 2.46044 C
atom 23.70125 3.14494 3.64555 C
atom 23.93557 3.55219 4.62077 H
