title geometry
lattice_vector 29.324156 0.000000 0.000000
lattice_vector 0.000000 2.742972 0.000000
lattice_vector 3.576208 0.000000 2.798302
0.340403 -117.144402 110.502698 9.195864 2.658187 0.604007 /home/trose/genarris_mpi4py/merged_4_17_2019/tests/full_diverse_workflow/harris_single_molecule_prep_aims_dir/geometry
179.660505 -62.855721 -69.498134 23.704502 2.658187 2.194286 /home/trose/genarris_mpi4py/merged_4_17_2019/tests/full_diverse_workflow/harris_single_molecule_prep_aims_dir/geometry
