lattice_vector 6.238149 0.0 0.0
lattice_vector 0.0 12.919283 0.0
lattice_vector -1.351741 0.0 2.939102
atom 0.78000 7.94352 0.36896 O
atom 2.09858 7.58273 0.15847 C
atom 2.79700 8.40934 0.13182 H
atom 2.14903 6.22993 0.03910 C
atom 2.73642 4.84024 -0.15905 C
atom 3.43255 4.50678 0.62136 H
atom 3.19386 4.65608 -1.13970 H
atom 1.25752 4.28709 -0.00481 C
atom 1.10174 3.63314 0.86298 H
atom 0.86168 3.78651 -0.89788 H
atom 0.82377 5.73415 0.17881 C
atom 0.00368 6.79908 0.37940 C
atom -1.05367 6.96814 0.53830 H
atom 4.10640 14.40316 2.57014 O
atom 2.78783 14.04237 2.78064 C
atom 2.08941 14.86898 2.80728 H
atom 2.73738 12.68957 2.90000 C
atom 2.14999 11.29988 3.09815 C
atom 1.45386 10.96642 2.31774 H
atom 1.69254 11.11572 4.07881 H
atom 3.62888 10.74674 2.94391 C
atom 3.78467 10.09278 2.07612 H
atom 4.02473 10.24615 3.83698 H
atom 4.06264 12.19379 2.76029 C
atom 4.88273 13.25872 2.55971 C
atom 5.94008 13.42778 2.40080 H
