title geometry
lattice_vector 6.822001 0.000000 0.000000
lattice_vector 0.000000 8.183311 0.000000
lattice_vector 0.337466 0.000000 3.980531
-156.587246 -41.263909 -125.150812 0.990003 5.414660 1.055196 /home/trose/genarris_mpi4py/merged_4_17_2019/tests/full_diverse_workflow/harris_single_molecule_prep_aims_dir/geometry
-23.412587 -138.736698 54.849439 6.169465 1.323005 2.925325 /home/trose/genarris_mpi4py/merged_4_17_2019/tests/full_diverse_workflow/harris_single_molecule_prep_aims_dir/geometry
