lattice_vector 10.60708 0.0 0.0
lattice_vector 0.0 5.112436 0.0
lattice_vector 1.314399 0.0 3.798594
atom 9.53213 3.09162 -0.62609 O
atom 8.48267 3.50474 0.17458 C
atom 7.94061 4.36561 -0.19538 H
atom 8.42416 2.67563 1.24975 C
atom 7.94093 2.08552 2.56649 C
atom 6.92865 1.66144 2.54998 H
atom 8.03196 2.74314 3.44062 H
atom 9.10600 1.01914 2.41700 C
atom 8.76548 -0.01960 2.31662 H
atom 9.87010 1.06420 3.20374 H
atom 9.46743 1.71904 1.11495 C
atom 10.13177 1.99261 -0.03859 C
atom 10.97162 1.58539 -0.58690 H
atom 2.38935 5.64784 4.42469 O
atom 3.43881 6.06096 3.62401 C
atom 3.98088 6.92182 3.99398 H
atom 3.49731 5.23185 2.54884 C
atom 3.98055 4.64174 1.23211 C
atom 4.99283 4.21766 1.24862 H
atom 3.88952 5.29936 0.35797 H
atom 2.81548 3.57535 1.38159 C
atom 3.15600 2.53662 1.48197 H
atom 2.05138 3.62041 0.59485 H
atom 2.45405 4.27526 2.68364 C
atom 1.78971 4.54883 3.83718 C
atom 0.94986 4.14161 4.38549 H
