lattice_vector 10.611928 0.0 0.0
lattice_vector 0.0 6.059637 0.0
lattice_vector -5.596584 0.0 3.311342
atom -0.48303 3.80717 0.37448 O
atom -1.66306 3.30666 -0.14526 C
atom -2.15258 3.95159 -0.86375 H
atom -1.88630 2.09009 0.41773 C
atom -2.57683 0.76884 0.72272 C
atom -2.64955 0.06916 -0.11989 H
atom -3.56292 0.84979 1.19806 H
atom -1.38212 0.47442 1.72415 C
atom -0.76769 -0.39608 1.46014 H
atom -1.67954 0.38849 2.77724 H
atom -0.81477 1.82565 1.31412 C
atom 0.03082 2.88868 1.27163 C
atom 0.96115 3.18245 1.74068 H
atom -3.28132 2.25247 2.03015 O
atom -4.46135 2.75298 1.51041 C
atom -4.95087 2.10805 0.79192 H
atom -4.68460 3.96955 2.07340 C
atom -5.37512 5.29079 2.37839 C
atom -5.44784 5.99048 1.53578 H
atom -6.36121 5.20985 2.85373 H
atom -4.18041 5.58522 3.37983 C
atom -3.56598 6.45572 3.11581 H
atom -4.47783 5.67115 4.43291 H
atom -3.61306 4.23399 2.96979 C
atom -2.76747 3.17096 2.92730 C
atom -1.83714 2.87719 3.39635 H
