lattice_vector 8.459632 0.0 0.0
lattice_vector 0.0 6.706206 0.0
lattice_vector 0.992826 0.0 4.228424
atom 4.37279 2.16921 2.14965 O
atom 3.13678 1.77208 1.67250 C
atom 2.70476 2.42881 0.92827 H
atom 2.79670 0.61597 2.30065 C
atom 1.97609 -0.60715 2.68291 C
atom 1.81377 -1.33635 1.87870 H
atom 1.01330 -0.39779 3.16670 H
atom 3.15167 -0.97689 3.68200 C
atom 3.66539 -1.92009 3.45512 H
atom 2.86682 -0.97782 4.74205 H
atom 3.85101 0.28388 3.19496 C
atom 4.80342 1.24717 3.08610 C
atom 5.76833 1.46310 3.52670 H
atom 5.07967 5.52231 2.07878 O
atom 6.31568 5.12519 2.55593 C
atom 6.74770 5.78191 3.30015 H
atom 6.65575 3.96907 1.92777 C
atom 7.47637 2.74595 1.54552 C
atom 7.63868 2.01675 2.34973 H
atom 8.43916 2.95531 1.06172 H
atom 6.30079 2.37621 0.54642 C
atom 5.78707 1.43302 0.77331 H
atom 6.58563 2.37529 -0.51363 H
atom 5.60145 3.63699 1.03346 C
atom 4.64904 4.60027 1.14232 C
atom 3.68412 4.81621 0.70172 H
