lattice_vector 6.734997 0.0 0.0
lattice_vector 0.0 10.990682 0.0
lattice_vector 4.765349 0.0 3.259096
atom 9.41163 2.55304 4.31920 O
atom 8.33480 1.68832 4.24294 C
atom 8.45386 0.76480 4.79498 H
atom 7.38646 2.26781 3.46085 C
atom 6.07473 2.44376 2.70989 C
atom 5.17564 2.49740 3.33726 H
atom 5.89472 1.72635 1.89885 H
atom 6.63416 3.85073 2.23620 C
atom 6.05641 4.71506 2.58854 H
atom 6.77921 3.94305 1.15210 H
atom 7.88732 3.52940 3.03757 C
atom 9.12655 3.68258 3.57393 C
atom 9.90854 4.43106 3.56520 H
atom 9.41163 8.43764 4.31920 O
atom 8.33480 9.30237 4.24294 C
atom 8.45386 10.22588 4.79498 H
atom 7.38646 8.72287 3.46085 C
atom 6.07473 8.54692 2.70989 C
atom 5.17564 8.49328 3.33726 H
atom 5.89472 9.26433 1.89885 H
atom 6.63416 7.13995 2.23620 C
atom 6.05641 6.27562 2.58854 H
atom 6.77921 7.04763 1.15210 H
atom 7.88732 7.46128 3.03757 C
atom 9.12655 7.30810 3.57393 C
atom 9.90854 6.55962 3.56520 H
