lattice_vector 5.886114999999999 0.0 0.0
lattice_vector 3.85147989320805e-16 6.289944 0.0
lattice_vector 3.8514797381617574e-16 -3.144972 5.447251
atom 1.48610 4.47005 1.36816 C
atom 1.48610 3.41989 0.44441 C
atom 1.48610 2.09481 0.89200 C
atom 1.48610 1.81990 2.26334 C
atom 1.48610 2.87006 3.18709 C
atom 1.48610 4.19513 2.73951 C
atom 1.48610 5.50406 1.01889 H
atom 1.48610 3.63442 -0.62571 H
atom 1.48610 1.27533 0.17115 H
atom 1.48610 0.78588 2.61261 H
atom 1.48610 2.65553 4.25721 H
atom 1.48610 5.01462 3.46035 H
atom 4.42915 4.19513 0.89200 C
atom 4.42915 4.47005 2.26334 C
atom 4.42915 3.41989 3.18709 C
atom 4.42915 2.09481 2.73951 C
atom 4.42915 1.81990 1.36816 C
atom 4.42915 2.87006 0.44441 C
atom 4.42915 5.01462 0.17115 H
atom 4.42915 5.50406 2.61261 H
atom 4.42915 3.63442 4.25721 H
atom 4.42915 1.27533 3.46035 H
atom 4.42915 0.78588 1.01889 H
atom 4.42915 2.65553 -0.62571 H
