title geometry
lattice_vector 3.254107 0.000000 0.000000
lattice_vector 0.000000 14.226584 0.000000
lattice_vector 4.053017 0.000000 5.151527
70.372448 -28.253471 -55.595514 2.642810 11.227210 2.130449 /home/trose/genarris_mpi4py/merged_4_17_2019/tests/full_diverse_workflow/harris_single_molecule_prep_aims_dir/geometry
-142.498816 -52.172847 -8.025323 2.642810 2.999370 2.130449 /home/trose/genarris_mpi4py/merged_4_17_2019/tests/full_diverse_workflow/harris_single_molecule_prep_aims_dir/geometry
