title geometry
lattice_vector 22.544250 0.000000 0.000000
lattice_vector 0.000000 3.476727 0.000000
lattice_vector -3.659669 0.000000 2.858609
-2.852482 -38.150291 106.571524 0.700652 0.442179 2.400694 /home/trose/genarris_mpi4py/merged_4_17_2019/tests/full_diverse_workflow/harris_single_molecule_prep_aims_dir/geometry
-177.147772 -141.849506 -73.428712 18.183931 0.442179 0.457905 /home/trose/genarris_mpi4py/merged_4_17_2019/tests/full_diverse_workflow/harris_single_molecule_prep_aims_dir/geometry
