title geometry
lattice_vector 14.737605 0.000000 0.000000
lattice_vector 0.000000 2.987752 0.000000
lattice_vector 10.092604 0.000000 5.932521
-173.556697 -72.424066 121.948930 16.759114 1.516587 2.334337 /home/trose/genarris_mpi4py/merged_4_17_2019/tests/full_diverse_workflow/harris_single_molecule_prep_aims_dir/geometry
-6.443362 -107.576013 -58.050949 8.071097 1.516587 3.598176 /home/trose/genarris_mpi4py/merged_4_17_2019/tests/full_diverse_workflow/harris_single_molecule_prep_aims_dir/geometry
