lattice_vector 3.369056 0.0 0.0
lattice_vector 4.2618220941081123e-16 6.960083669961589 0.0
lattice_vector 6.442710778136453e-16 -0.020353408493832603 10.521725494140814
atom 1.43210 6.25434 8.61158 C
atom 1.94910 5.09410 9.19704 C
atom 2.21193 3.96994 8.40758 C
atom 1.95775 4.00610 7.03270 C
atom 1.44075 5.16634 6.44723 C
atom 1.17792 6.29049 7.23669 C
atom 1.22699 7.13158 9.22764 H
atom 2.14737 5.06609 10.26993 H
atom 2.61536 3.06447 8.86425 H
atom 2.16286 3.12885 6.41663 H
atom 1.24248 5.19434 5.37435 H
atom 0.77449 7.19596 6.78003 H
atom 1.43210 0.68539 1.91015 C
atom 1.94910 1.84563 1.32468 C
atom 2.21193 2.96979 2.11414 C
atom 1.95775 2.93363 3.48903 C
atom 1.44075 1.77339 4.07449 C
atom 1.17792 0.64924 3.28503 C
atom 1.22699 -0.19185 1.29408 H
atom 2.14737 1.87364 0.25179 H
atom 2.61536 3.87526 1.65748 H
atom 2.16286 3.81088 4.10509 H
atom 1.24248 1.74538 5.14738 H
atom 0.77449 -0.25623 3.74170 H
