lattice_vector 18.06304 0.0 0.0
lattice_vector 0.0 2.8424 0.0
lattice_vector -3.528664 0.0 3.505335
atom 11.91829 0.56647 4.29291 O
atom 12.61616 0.16394 3.16861 C
atom 13.52872 -0.38179 3.37161 H
atom 11.92840 0.58575 2.07504 C
atom 11.58474 0.80953 0.60966 C
atom 11.37832 -0.09915 0.02954 H
atom 12.29354 1.43142 0.04778 H
atom 10.29216 1.57559 1.11886 C
atom 9.34088 1.10988 0.83044 H
atom 10.25754 2.63992 0.85271 H
atom 10.76922 1.27101 2.53148 C
atom 10.78379 1.24709 3.89018 C
atom 10.15994 1.60906 4.69741 H
atom 2.61608 0.56647 -0.78757 O
atom 1.91821 0.16394 0.33673 C
atom 1.00565 -0.38179 0.13373 H
atom 2.60598 0.58575 1.43029 C
atom 2.94964 0.80953 2.89568 C
atom 3.15606 -0.09915 3.47579 H
atom 2.24083 1.43142 3.45756 H
atom 4.24222 1.57559 2.38647 C
atom 5.19349 1.10988 2.67489 H
atom 4.27684 2.63992 2.65262 H
atom 3.76516 1.27101 0.97386 C
atom 3.75059 1.24709 -0.38485 C
atom 4.37443 1.60906 -1.19208 H
