title geometry
lattice_vector 18.063040 0.000000 0.000000
lattice_vector 0.000000 2.842400 0.000000
lattice_vector -3.528664 0.000000 3.505335
-55.340048 -90.086826 -62.111818 11.418566 0.885188 2.545123 /home/trose/genarris_mpi4py/merged_4_17_2019/tests/full_diverse_workflow/harris_single_molecule_prep_aims_dir/geometry
-124.659996 -89.913479 117.888199 3.115811 0.885188 0.960203 /home/trose/genarris_mpi4py/merged_4_17_2019/tests/full_diverse_workflow/harris_single_molecule_prep_aims_dir/geometry
