title geometry
lattice_vector 6.703300 0.000000 0.000000
lattice_vector 0.000000 3.795614 0.000000
lattice_vector 11.810711 0.000000 10.912432
-32.859296 -41.250457 11.309191 8.430238 2.090125 4.874653 /home/trose/genarris_mpi4py/merged_4_17_2019/tests/full_diverse_workflow/harris_single_molecule_prep_aims_dir/geometry
-83.406573 -14.482590 -22.913456 14.335594 1.705486 10.330869 /home/trose/genarris_mpi4py/merged_4_17_2019/tests/full_diverse_workflow/harris_single_molecule_prep_aims_dir/geometry
