title geometry
lattice_vector 8.067146 0.000000 0.000000
lattice_vector 0.000000 17.653200 0.000000
lattice_vector 2.327804 0.000000 2.559867
80.524214 -105.427858 -28.098754 4.422085 6.654298 1.261657 /home/trose/genarris_mpi4py/merged_4_17_2019/tests/full_diverse_workflow/harris_single_molecule_prep_aims_dir/geometry
-120.926150 -76.939833 -95.652884 5.585987 10.998899 2.541590 /home/trose/genarris_mpi4py/merged_4_17_2019/tests/full_diverse_workflow/harris_single_molecule_prep_aims_dir/geometry
