lattice_vector 23.738586 0.0 0.0
lattice_vector 0.0 3.339548 0.0
lattice_vector 3.473103 0.0 4.013311
atom 19.48140 2.84963 2.82363 O
atom 19.77076 2.07200 1.71698 C
atom 18.97290 2.00373 0.98859 H
atom 21.03330 1.59042 1.86164 C
atom 22.31021 0.82735 1.54108 C
atom 22.85455 1.17117 0.65209 H
atom 22.20800 -0.26434 1.48986 H
atom 22.88023 1.37436 2.91685 C
atom 23.75430 2.03150 2.82110 H
atom 23.10389 0.59776 3.65963 H
atom 21.54463 2.08191 3.09396 C
atom 20.57902 2.84900 3.66493 C
atom 20.45941 3.43210 4.56909 H
atom 7.73029 2.84963 1.18968 O
atom 7.44093 2.07200 2.29633 C
atom 8.23879 2.00373 3.02472 H
atom 6.17839 1.59042 2.15167 C
atom 4.90148 0.82735 2.47223 C
atom 4.35714 1.17117 3.36122 H
atom 5.00369 -0.26434 2.52345 H
atom 4.33146 1.37436 1.09646 C
atom 3.45739 2.03150 1.19221 H
atom 4.10780 0.59776 0.35368 H
atom 5.66706 2.08191 0.91935 C
atom 6.63267 2.84900 0.34838 C
atom 6.75228 3.43210 -0.55578 H
