lattice_vector 10.998858 0.0 0.0
lattice_vector 0.0 4.035122 0.0
lattice_vector 0.547838 0.0 4.374848
atom 1.31479 1.26308 3.07705 O
atom 2.01864 0.73252 2.01112 C
atom 1.54699 -0.11631 1.53276 H
atom 3.15641 1.45948 1.85669 C
atom 4.49080 1.90758 1.27865 C
atom 4.45581 2.28417 0.24822 H
atom 5.30873 1.17998 1.35903 H
atom 4.49729 3.03575 2.39403 C
atom 4.46833 4.06243 2.00661 H
atom 5.31764 2.95652 3.11901 H
atom 3.16143 2.47147 2.85542 C
atom 2.02648 2.33224 3.58983 C
atom 1.56177 2.82487 4.43434 H
atom 10.23190 1.26308 1.29779 O
atom 9.52806 0.73252 2.36373 C
atom 9.99971 -0.11631 2.84209 H
atom 8.39029 1.45948 2.51816 C
atom 7.05589 1.90758 3.09620 C
atom 7.09089 2.28417 4.12663 H
atom 6.23796 1.17998 3.01582 H
atom 7.04940 3.03575 1.98082 C
atom 7.07837 4.06243 2.36824 H
atom 6.22906 2.95652 1.25584 H
atom 8.38527 2.47147 1.51943 C
atom 9.52022 2.33224 0.78501 C
atom 9.98492 2.82487 -0.05949 H
