lattice_vector 4.493497 0.0 0.0
lattice_vector 0.0 4.22049 0.0
lattice_vector 2.585165 0.0 9.232623
atom 5.41506 2.96145 7.31084 O
atom 4.74000 2.87842 6.10646 C
atom 5.12965 3.51511 5.32250 H
atom 3.73132 1.97948 6.25245 C
atom 2.52695 1.12186 5.89260 C
atom 2.70304 0.36163 5.12066 H
atom 1.61249 1.67384 5.63972 H
atom 2.57945 0.57575 7.38119 C
atom 2.78351 -0.49940 7.46725 H
atom 1.69615 0.81559 7.98708 H
atom 3.77936 1.48900 7.58615 C
atom 4.81604 2.10309 8.21469 C
atom 5.26917 2.08914 9.19769 H
atom 1.66360 5.07169 1.92178 O
atom 2.33866 4.98866 3.12616 C
atom 1.94901 5.62535 3.91012 H
atom 3.34734 4.08973 2.98017 C
atom 4.55171 3.23210 3.34002 C
atom 4.37562 2.47188 4.11196 H
atom 5.46617 3.78409 3.59291 H
atom 4.49921 2.68599 1.85143 C
atom 4.29515 1.61084 1.76537 H
atom 5.38251 2.92584 1.24554 H
atom 3.29930 3.59925 1.64647 C
atom 2.26262 4.21333 1.01794 C
atom 1.80950 4.19939 0.03493 H
