lattice_vector 17.928053 0.0 0.0
lattice_vector 0.0 3.547159 0.0
lattice_vector 4.824811 0.0 4.522782
atom 14.16455 2.27547 1.45311 O
atom 13.81319 1.45278 2.50803 C
atom 12.74745 1.33635 2.65784 H
atom 14.95705 1.00096 3.08620 C
atom 15.86274 0.25016 4.05137 C
atom 15.79770 -0.84455 4.00442 H
atom 15.79497 0.56125 5.10184 H
atom 17.08467 0.87371 3.25453 C
atom 17.72513 0.13850 2.75026 H
atom 17.71957 1.54654 3.84533 H
atom 16.05212 1.55867 2.37107 C
atom 15.54417 2.33436 1.37752 C
atom 15.92986 2.95624 0.57981 H
atom 8.58832 2.27547 3.06967 O
atom 8.93967 1.45278 2.01476 C
atom 10.00541 1.33635 1.86494 H
atom 7.79581 1.00096 1.43659 C
atom 6.89012 0.25016 0.47142 C
atom 6.95517 -0.84455 0.51836 H
atom 6.95789 0.56125 -0.57906 H
atom 5.66819 0.87371 1.26826 C
atom 5.02773 0.13850 1.77253 H
atom 5.03329 1.54654 0.67745 H
atom 6.70075 1.55867 2.15171 C
atom 7.20869 2.33436 3.14527 C
atom 6.82301 2.95624 3.94297 H
