lattice_vector 5.313021 0.0 0.0
lattice_vector 0.0 14.437103 0.0
lattice_vector -1.04426 0.0 2.729976
atom 0.99280 12.49470 0.39136 O
atom 0.08905 11.44918 0.44838 C
atom -0.95131 11.74809 0.45851 H
atom 0.79344 10.28734 0.47664 C
atom 1.06899 8.79170 0.52818 C
atom 0.71291 8.21647 -0.33619 H
atom 0.74592 8.28310 1.44568 H
atom 2.61114 9.16162 0.48510 C
atom 3.14437 8.79779 -0.40276 H
atom 3.17626 8.86858 1.37931 H
atom 2.17550 10.61891 0.43654 C
atom 2.27371 11.97337 0.38491 C
atom 3.06479 12.71101 0.34142 H
atom 0.47067 1.94240 1.75634 O
atom -0.43308 2.98792 1.81336 C
atom -1.47344 2.68901 1.82350 H
atom 0.27131 4.14976 1.84163 C
atom 0.54686 5.64540 1.89317 C
atom 0.19078 6.22064 1.02880 H
atom 0.22379 6.15400 2.81067 H
atom 2.08901 5.27548 1.85009 C
atom 2.62224 5.63932 0.96223 H
atom 2.65413 5.56853 2.74429 H
atom 1.65337 3.81819 1.80153 C
atom 1.75157 2.46374 1.74990 C
atom 2.54265 1.72609 1.70641 H
