lattice_vector 5.919821 0.0 0.0
lattice_vector 0.0 17.729275 0.0
lattice_vector 3.947097 0.0 2.804476
atom 6.62037 10.51538 2.37724 O
atom 7.14227 11.20272 3.45813 C
atom 7.62721 10.58154 4.20026 H
atom 6.88818 12.52528 3.27614 C
atom 6.86733 14.02125 3.55394 C
atom 7.84970 14.51038 3.57711 H
atom 6.30078 14.32898 4.44230 H
atom 6.08412 14.17762 2.18316 C
atom 6.61388 14.75863 1.41715 H
atom 5.06491 14.57294 2.28201 H
atom 6.18754 12.66548 2.04688 C
atom 6.03481 11.42428 1.51494 C
atom 5.59179 10.98953 0.62807 H
atom 6.62037 7.21389 2.37724 O
atom 7.14227 6.52655 3.45813 C
atom 7.62721 7.14773 4.20026 H
atom 6.88818 5.20400 3.27614 C
atom 6.86733 3.70802 3.55394 C
atom 7.84970 3.21889 3.57711 H
atom 6.30078 3.40030 4.44230 H
atom 6.08412 3.55166 2.18316 C
atom 6.61388 2.97064 1.41715 H
atom 5.06491 3.15634 2.28201 H
atom 6.18754 5.06380 2.04688 C
atom 6.03481 6.30499 1.51494 C
atom 5.59179 6.73975 0.62807 H
