title geometry
lattice_vector 5.219147 0.000000 0.000000
lattice_vector 0.000000 5.685829 0.000000
lattice_vector -10.721321 0.000000 7.980972
-23.475751 -56.875337 -101.493692 -3.308074 4.090459 4.876518 /home/trose/genarris_mpi4py/merged_4_17_2019/tests/full_diverse_workflow/harris_single_molecule_prep_aims_dir/geometry
-11.904488 -92.833848 -11.345067 2.052586 1.595367 0.886033 /home/trose/genarris_mpi4py/merged_4_17_2019/tests/full_diverse_workflow/harris_single_molecule_prep_aims_dir/geometry
