title geometry
lattice_vector 5.785882 0.000000 0.000000
lattice_vector 0.000000 9.921772 0.000000
lattice_vector -1.673395 0.000000 4.721170
-7.735832 -84.714434 147.497029 1.352085 1.820959 3.231960 /home/trose/genarris_mpi4py/merged_4_17_2019/tests/full_diverse_workflow/harris_single_molecule_prep_aims_dir/geometry
-172.264523 -95.285746 -32.503144 2.760404 6.781845 1.489202 /home/trose/genarris_mpi4py/merged_4_17_2019/tests/full_diverse_workflow/harris_single_molecule_prep_aims_dir/geometry
