lattice_vector 32.618107 0.0 0.0
lattice_vector 0.0 3.245638 0.0
lattice_vector 4.600149 0.0 2.887587
atom 24.04991 1.66763 -0.46574 O
atom 25.37574 1.56859 -0.84717 C
atom 25.55489 0.93656 -1.70754 H
atom 26.11464 2.32756 0.00421 C
atom 27.33748 2.98184 0.63039 C
atom 27.86665 3.70089 -0.00818 H
atom 28.07185 2.29173 1.06549 H
atom 26.34331 3.63685 1.67896 C
atom 26.30110 4.73328 1.64638 H
atom 26.50311 3.32186 2.71824 H
atom 25.22340 2.91573 0.94302 C
atom 23.96686 2.49836 0.63678 C
atom 22.96547 2.64637 1.02035 H
atom 13.16834 1.66763 3.35332 O
atom 11.84251 1.56859 3.73475 C
atom 11.66337 0.93656 4.59513 H
atom 11.10362 2.32756 2.88338 C
atom 9.88078 2.98184 2.25719 C
atom 9.35161 3.70089 2.89577 H
atom 9.14641 2.29173 1.82210 H
atom 10.87495 3.63685 1.20863 C
atom 10.91716 4.73328 1.24121 H
atom 10.71515 3.32186 0.16935 H
atom 11.99486 2.91573 1.94457 C
atom 13.25139 2.49836 2.25081 C
atom 14.25278 2.64637 1.86723 H
