lattice_vector 23.33626 0.0 0.0
lattice_vector 0.0 4.504128 0.0
lattice_vector -2.347376 0.0 2.541314
atom 7.92532 2.35108 0.28409 O
atom 6.83554 1.97783 -0.48155 C
atom 6.66406 2.59100 -1.35700 H
atom 6.26024 0.89654 0.10726 C
atom 5.28346 -0.24790 0.33454 C
atom 5.28949 -1.03258 -0.43297 H
atom 4.24402 0.04891 0.52514 H
atom 6.12246 -0.59136 1.63647 C
atom 6.61014 -1.57467 1.62040 H
atom 5.56705 -0.48968 2.57775 H
atom 7.01311 0.58790 1.27326 C
atom 8.02571 1.48995 1.36154 C
atom 8.85174 1.69337 2.03096 H
atom 13.06357 2.35108 2.25723 O
atom 14.15334 1.97783 3.02286 C
atom 14.32482 2.59100 3.89831 H
atom 14.72864 0.89654 2.43406 C
atom 15.70543 -0.24790 2.20677 C
atom 15.69939 -1.03258 2.97429 H
atom 16.74487 0.04891 2.01618 H
atom 14.86643 -0.59136 0.90485 C
atom 14.37874 -1.57467 0.92091 H
atom 15.42184 -0.48968 -0.03644 H
atom 13.97577 0.58790 1.26806 C
atom 12.96317 1.48995 1.17977 C
atom 12.13714 1.69337 0.51036 H
