title geometry
lattice_vector 23.336260 0.000000 0.000000
lattice_vector 0.000000 4.504128 0.000000
lattice_vector -2.347376 0.000000 2.541314
100.198423 -9.512829 -120.372013 6.792744 0.938395 0.641356 /home/trose/genarris_mpi4py/merged_4_17_2019/tests/full_diverse_workflow/harris_single_molecule_prep_aims_dir/geometry
79.799398 -170.487035 59.625810 14.196143 0.938395 1.899949 /home/trose/genarris_mpi4py/merged_4_17_2019/tests/full_diverse_workflow/harris_single_molecule_prep_aims_dir/geometry
