title geometry
lattice_vector 8.379014 0.000000 0.000000
lattice_vector 0.000000 7.105872 0.000000
lattice_vector -4.449047 0.000000 3.415371
87.119766 -64.106623 168.713320 4.114252 5.122957 1.525252 /home/trose/genarris_mpi4py/merged_4_17_2019/tests/full_diverse_workflow/harris_single_molecule_prep_aims_dir/geometry
92.880179 -115.893060 -11.286983 -0.184283 1.570021 1.890110 /home/trose/genarris_mpi4py/merged_4_17_2019/tests/full_diverse_workflow/harris_single_molecule_prep_aims_dir/geometry
