lattice_vector 3.613603 0.0 0.0
lattice_vector 0.0 11.099514 0.0
lattice_vector 3.266849 0.0 5.584671
atom 5.20904 11.16294 3.98963 O
atom 4.34195 10.30155 3.34213 C
atom 4.02890 10.62685 2.35826 H
atom 4.11664 9.24021 4.16043 C
atom 3.55213 7.91337 4.64660 C
atom 3.85342 7.03168 4.06635 H
atom 2.46386 7.88608 4.78728 H
atom 4.38530 8.14465 5.97672 C
atom 5.16515 7.39522 6.16434 H
atom 3.77674 8.25348 6.88373 H
atom 4.86455 9.44685 5.35189 C
atom 5.52426 10.62823 5.22545 C
atom 6.20242 11.22657 5.82036 H
atom 1.67141 5.61319 1.59504 O
atom 2.53850 4.75179 2.24255 C
atom 2.85155 5.07709 3.22641 H
atom 2.76381 3.69045 1.42424 C
atom 3.32832 2.36362 0.93808 C
atom 3.02703 1.48193 1.51832 H
atom 4.41659 2.33632 0.79739 H
atom 2.49515 2.59489 -0.39205 C
atom 1.71530 1.84546 -0.57967 H
atom 3.10371 2.70372 -1.29905 H
atom 2.01590 3.89709 0.23278 C
atom 1.35619 5.07847 0.35922 C
atom 0.67803 5.67681 -0.23569 H
