lattice_vector 9.611178 0.0 0.0
lattice_vector 0.0 7.545368 0.0
lattice_vector -4.37597 0.0 2.640842
atom -0.56357 2.65780 0.09727 O
atom -0.78472 1.90002 1.23304 C
atom -0.54576 0.84912 1.13159 H
atom -1.26139 2.72565 2.20152 C
atom -1.79176 3.17197 3.55615 C
atom -1.09025 3.07003 4.39420 H
atom -2.75671 2.74004 3.85140 H
atom -1.88079 4.63273 2.94364 C
atom -1.23246 5.37313 3.42992 H
atom -2.89770 5.04149 2.88333 H
atom -1.33975 4.03506 1.65294 C
atom -0.90850 3.96984 0.36584 C
atom -0.77311 4.65428 -0.46183 H
atom 5.79878 6.43049 2.54357 O
atom 6.01993 5.67270 1.40780 C
atom 5.78096 4.62180 1.50925 H
atom 6.49660 6.49834 0.43932 C
atom 7.02697 6.94466 -0.91531 C
atom 6.32546 6.84271 -1.75336 H
atom 7.99192 6.51272 -1.21056 H
atom 7.11600 8.40541 -0.30280 C
atom 6.46767 9.14582 -0.78908 H
atom 8.13291 8.81417 -0.24249 H
atom 6.57496 7.80774 0.98790 C
atom 6.14371 7.74252 2.27500 C
atom 6.00832 8.42696 3.10267 H
