title geometry
lattice_vector 9.611178 0.000000 0.000000
lattice_vector 0.000000 7.545368 0.000000
lattice_vector -4.375970 0.000000 2.640842
-56.549666 -101.484370 104.165919 -1.211873 3.292299 1.704490 /home/trose/genarris_mpi4py/merged_4_17_2019/tests/full_diverse_workflow/harris_single_molecule_prep_aims_dir/geometry
-123.450363 -78.515790 -75.834184 6.447083 7.064983 0.936343 /home/trose/genarris_mpi4py/merged_4_17_2019/tests/full_diverse_workflow/harris_single_molecule_prep_aims_dir/geometry
