lattice_vector 16.948009 0.0 0.0
lattice_vector 0.0 3.128234 0.0
lattice_vector 0.009723 0.0 5.544161
atom 11.78118 0.44720 7.35163 O
atom 10.54112 0.28636 6.76045 C
atom 9.84995 -0.33420 7.31630 H
atom 10.53878 0.98484 5.59470 C
atom 10.02823 1.55818 4.28087 C
atom 9.19086 2.26256 4.36740 H
atom 9.78737 0.81993 3.50509 H
atom 11.45179 2.24085 4.12494 C
atom 11.43480 3.33843 4.11932 H
atom 12.03255 1.89376 3.26060 H
atom 11.81415 1.59784 5.45576 C
atom 12.55714 1.25538 6.54090 C
atom 13.55556 1.44773 6.91237 H
atom 5.17655 0.44720 -1.80747 O
atom 6.41661 0.28636 -1.21628 C
atom 7.10778 -0.33420 -1.77214 H
atom 6.41895 0.98484 -0.05054 C
atom 6.92950 1.55818 1.26329 C
atom 7.76688 2.26256 1.17676 H
atom 7.17036 0.81993 2.03907 H
atom 5.50594 2.24085 1.41922 C
atom 5.52293 3.33843 1.42484 H
atom 4.92518 1.89376 2.28357 H
atom 5.14358 1.59784 0.08841 C
atom 4.40059 1.25538 -0.99674 C
atom 3.40217 1.44773 -1.36821 H
