lattice_vector 6.666943 0.0 0.0
lattice_vector 0.0 8.546741 0.0
lattice_vector 4.292168 0.0 3.046648
atom 10.13686 6.49972 4.03566 O
atom 10.30709 5.66748 2.94410 C
atom 10.95477 4.81762 3.11748 H
atom 9.57985 6.17362 1.91368 C
atom 8.98393 6.29770 0.51904 C
atom 8.29845 5.49216 0.22568 H
atom 9.70711 6.45596 -0.29140 H
atom 8.26985 7.61702 1.03515 C
atom 7.17302 7.57284 1.03716 H
atom 8.58378 8.53617 0.52381 H
atom 8.93874 7.35522 2.37674 C
atom 9.29363 7.53522 3.67617 C
atom 9.09114 8.25086 4.46273 H
atom 0.82225 2.22635 -0.98901 O
atom 0.65202 1.39410 0.10255 C
atom 0.00434 0.54425 -0.07083 H
atom 1.37926 1.90025 1.13297 C
atom 1.97518 2.02433 2.52761 C
atom 2.66066 1.21879 2.82097 H
atom 1.25200 2.18259 3.33805 H
atom 2.68926 3.34365 2.01150 C
atom 3.78609 3.29947 2.00949 H
atom 2.37533 4.26279 2.52284 H
atom 2.02037 3.08185 0.66991 C
atom 1.66548 3.26185 -0.62952 C
atom 1.86797 3.97749 -1.41608 H
