lattice_vector 3.254107 0.0 0.0
lattice_vector 0.0 14.226584 0.0
lattice_vector 4.053017 0.0 5.151527
atom 2.83417 13.03369 2.45613 O
atom 2.40457 12.46960 1.26854 C
atom 2.16944 13.18057 0.48685 H
atom 2.39843 11.11954 1.42387 C
atom 2.21434 9.64879 1.07955 C
atom 2.87122 9.26369 0.28895 H
atom 1.18386 9.34003 0.86131 H
atom 2.70136 9.33104 2.55560 C
atom 3.63752 8.76097 2.61583 H
atom 1.95027 8.84156 3.18894 H
atom 2.83633 10.83478 2.74629 C
atom 3.09685 12.01954 3.35893 C
atom 3.44237 12.35257 4.32925 H
atom 2.83417 1.19289 2.45613 O
atom 2.40457 1.75698 1.26854 C
atom 2.16944 1.04602 0.48685 H
atom 2.39843 3.10705 1.42387 C
atom 2.21434 4.57779 1.07955 C
atom 2.87122 4.96289 0.28895 H
atom 1.18386 4.88655 0.86131 H
atom 2.70136 4.89555 2.55560 C
atom 3.63752 5.46561 2.61583 H
atom 1.95027 5.38503 3.18894 H
atom 2.83633 3.39180 2.74629 C
atom 3.09685 2.20704 3.35893 C
atom 3.44237 1.87401 4.32925 H
