lattice_vector 3.202779 0.0 0.0
lattice_vector 3.928157478596264e-16 6.4151679999999995 0.0
lattice_vector 7.917949593623415e-16 7.917949593623415e-16 12.930993
atom 0.74722 1.99637 10.39757 C
atom 0.74722 1.99637 8.99892 C
atom 0.74722 3.20758 8.29957 C
atom 0.74722 4.41880 8.99892 C
atom 0.74722 4.41880 10.39757 C
atom 0.74722 3.20758 11.09691 C
atom 0.74722 1.05114 10.94321 H
atom 0.74722 1.05114 8.45328 H
atom 0.74722 3.20758 7.20816 H
atom 0.74722 5.36403 8.45328 H
atom 0.74722 5.36403 10.94321 H
atom 0.74722 3.20758 12.18832 H
atom 2.45556 4.41880 2.53342 C
atom 2.45556 4.41880 3.93207 C
atom 2.45556 3.20758 4.63142 C
atom 2.45556 1.99637 3.93207 C
atom 2.45556 1.99637 2.53342 C
atom 2.45556 3.20758 1.83408 C
atom 2.45556 5.36403 1.98779 H
atom 2.45556 5.36403 4.47771 H
atom 2.45556 3.20758 5.72283 H
atom 2.45556 1.05114 4.47771 H
atom 2.45556 1.05114 1.98779 H
atom 2.45556 3.20758 0.74267 H
