title geometry
lattice_vector 5.974046 0.000000 0.000000
lattice_vector 0.000000 7.257870 0.000000
lattice_vector -8.554788 0.000000 5.744003
-48.273225 -106.376501 -62.496426 2.097202 4.017906 1.418868 /home/trose/genarris_mpi4py/merged_4_17_2019/tests/full_diverse_workflow/harris_single_molecule_prep_aims_dir/geometry
-131.726747 -73.623592 117.503566 -4.677942 0.388971 4.325125 /home/trose/genarris_mpi4py/merged_4_17_2019/tests/full_diverse_workflow/harris_single_molecule_prep_aims_dir/geometry
