lattice_vector 13.1802 0.0 0.0
lattice_vector 0.0 4.516469 0.0
lattice_vector 3.192891 0.0 5.594964
atom 12.55927 0.65059 1.92111 O
atom 11.93422 0.82849 3.14209 C
atom 11.11799 0.14510 3.33839 H
atom 12.54882 1.85818 3.78150 C
atom 12.85494 2.87778 4.86881 C
atom 13.20158 2.46016 5.82289 H
atom 12.05825 3.60486 5.07252 H
atom 14.01124 3.41147 3.92274 C
atom 15.02397 3.30360 4.33230 H
atom 13.87930 4.44551 3.57893 H
atom 13.58606 2.33547 2.93417 C
atom 13.57384 1.58287 1.80267 C
atom 14.13249 1.53200 0.87684 H
atom 3.81382 0.65059 3.67385 O
atom 4.43887 0.82849 2.45287 C
atom 5.25510 0.14510 2.25657 H
atom 3.82427 1.85818 1.81346 C
atom 3.51815 2.87778 0.72615 C
atom 3.17151 2.46016 -0.22792 H
atom 4.31484 3.60486 0.52244 H
atom 2.36185 3.41147 1.67222 C
atom 1.34912 3.30360 1.26266 H
atom 2.49379 4.44551 2.01603 H
atom 2.78703 2.33547 2.66079 C
atom 2.79925 1.58287 3.79230 C
atom 2.24060 1.53200 4.71812 H
