lattice_vector 3.206611 0.0 0.0
lattice_vector 0.0 12.67767 0.0
lattice_vector -1.196883 0.0 4.821805
atom 1.12780 1.59172 1.50405 O
atom 0.74107 2.65498 0.70842 C
atom 1.11137 2.61988 -0.30816 H
atom -0.03067 3.48262 1.46093 C
atom -0.89607 4.67997 1.82560 C
atom -1.85065 4.75295 1.28869 H
atom -0.39451 5.65547 1.78438 H
atom -1.00213 4.05176 3.27853 C
atom -2.01790 3.76478 3.57996 H
atom -0.55902 4.66423 4.07438 H
atom -0.12689 2.91878 2.76264 C
atom 0.58895 1.76361 2.76605 C
atom 0.83100 0.98160 3.47434 H
atom 1.12780 11.08595 1.50405 O
atom 0.74107 10.02269 0.70842 C
atom 1.11137 10.05779 -0.30816 H
atom -0.03067 9.19505 1.46093 C
atom -0.89607 7.99770 1.82560 C
atom -1.85065 7.92472 1.28869 H
atom -0.39451 7.02220 1.78438 H
atom -1.00213 8.62591 3.27853 C
atom -2.01790 8.91289 3.57996 H
atom -0.55902 8.01344 4.07438 H
atom -0.12689 9.75889 2.76264 C
atom 0.58895 10.91406 2.76605 C
atom 0.83100 11.69607 3.47434 H
