title geometry
lattice_vector 3.206611 0.000000 0.000000
lattice_vector 0.000000 12.677670 0.000000
lattice_vector -1.196883 0.000000 4.821805
-138.585662 -8.447218 18.409905 0.068683 3.005606 2.038126 /home/trose/genarris_mpi4py/merged_4_17_2019/tests/full_diverse_workflow/harris_single_molecule_prep_aims_dir/geometry
-29.636745 -40.786806 26.299254 0.068683 9.672061 2.038126 /home/trose/genarris_mpi4py/merged_4_17_2019/tests/full_diverse_workflow/harris_single_molecule_prep_aims_dir/geometry
