lattice_vector 3.298354 0.0 0.0
lattice_vector 0.0 12.321279 0.0
lattice_vector 2.844451 0.0 4.875739
atom 2.79862 4.94269 1.50975 O
atom 1.97897 4.05494 0.83656 C
atom 1.67817 4.37516 -0.15277 H
atom 1.77245 2.98091 1.64318 C
atom 1.24460 1.63153 2.10804 C
atom 1.59135 0.76501 1.53034 H
atom 0.15495 1.56428 2.22210 H
atom 2.03664 1.88394 3.45928 C
atom 2.83826 1.16180 3.66157 H
atom 1.40291 1.96497 4.35184 H
atom 2.48353 3.20654 2.85359 C
atom 3.10308 4.41163 2.74984 C
atom 3.74472 5.03007 3.36439 H
atom 2.79862 7.37859 1.50975 O
atom 1.97897 8.26634 0.83656 C
atom 1.67817 7.94612 -0.15277 H
atom 1.77245 9.34037 1.64318 C
atom 1.24460 10.68975 2.10804 C
atom 1.59135 11.55627 1.53034 H
atom 0.15495 10.75700 2.22210 H
atom 2.03664 10.43734 3.45928 C
atom 2.83826 11.15948 3.66157 H
atom 1.40291 10.35631 4.35184 H
atom 2.48353 9.11474 2.85359 C
atom 3.10308 7.90965 2.74984 C
atom 3.74472 7.29121 3.36439 H
