lattice_vector 8.618378 0.0 0.0
lattice_vector 0.0 6.640142 0.0
lattice_vector -3.126487 0.0 4.73244
atom 2.51184 2.78344 -1.46141 O
atom 2.56243 1.59169 -0.76122 C
atom 2.13113 0.74322 -1.27687 H
atom 3.16733 1.83183 0.43179 C
atom 3.74141 1.56340 1.81523 C
atom 4.60297 0.88393 1.84464 H
atom 3.01565 1.24328 2.57395 H
atom 4.11409 3.10466 1.86527 C
atom 5.19006 3.31355 1.92579 H
atom 3.60075 3.67338 2.65132 H
atom 3.50263 3.21287 0.47594 C
atom 3.09248 3.77473 -0.69151 C
atom 3.10616 4.75604 -1.14831 H
atom 0.94860 3.85670 0.90481 O
atom 0.99918 5.04846 1.60500 C
atom 0.56789 5.89692 1.08935 H
atom 1.60409 4.80831 2.79801 C
atom 2.17816 5.07675 4.18145 C
atom 3.03973 5.75622 4.21086 H
atom 1.45241 5.39686 4.94018 H
atom 2.55085 3.53548 4.23149 C
atom 3.62681 3.32659 4.29201 H
atom 2.03750 2.96676 5.01754 H
atom 1.93939 3.42727 2.84216 C
atom 1.52924 2.86541 1.67471 C
atom 1.54292 1.88410 1.21791 H
