lattice_vector 10.948303 0.0 0.0
lattice_vector 0.0 6.532389 0.0
lattice_vector -4.932887 0.0 4.348523
atom 0.91893 1.70599 2.01097 O
atom 0.21905 1.90329 0.83439 C
atom 0.81721 2.25507 0.00357 H
atom -1.08236 1.58521 1.06246 C
atom -2.56468 1.37631 0.78930 C
atom -2.80373 0.59390 0.05751 H
atom -3.13000 2.28157 0.53281 H
atom -2.69213 0.92419 2.30464 C
atom -3.00675 -0.11789 2.44634 H
atom -3.32887 1.57078 2.92216 H
atom -1.19622 1.17861 2.42015 C
atom 0.03914 1.26051 2.98054 C
atom 0.48592 1.07295 3.94854 H
atom 5.09649 4.97219 2.33755 O
atom 5.79637 5.16949 3.51413 C
atom 5.19821 5.52126 4.34495 H
atom 7.09777 4.85141 3.28607 C
atom 8.58010 4.64251 3.55922 C
atom 8.81915 3.86009 4.29101 H
atom 9.14542 5.54776 3.81571 H
atom 8.70755 4.19039 2.04389 C
atom 9.02216 3.14830 1.90218 H
atom 9.34428 4.83698 1.42637 H
atom 7.21163 4.44481 1.92837 C
atom 5.97628 4.52671 1.36798 C
atom 5.52949 4.33914 0.39998 H
