lattice_vector 5.255702 0.0 0.0
lattice_vector 0.0 5.537614 0.0
lattice_vector 5.998187 0.0 8.950183
atom 8.13455 4.24725 10.74658 O
atom 6.99939 5.03688 10.71450 C
atom 6.75552 5.52006 11.65197 H
atom 6.48596 4.98189 9.45744 C
atom 5.54740 5.25390 8.29097 C
atom 5.51193 6.29572 7.94719 H
atom 4.51933 4.89054 8.41710 H
atom 6.48286 4.30575 7.42910 C
atom 6.98473 4.80036 6.58738 H
atom 5.99439 3.39436 7.06086 H
atom 7.32523 4.13330 8.68469 C
atom 8.32613 3.69552 9.49302 C
atom 9.19427 3.05475 9.40594 H
atom 5.13545 1.29036 6.27149 O
atom 4.00030 0.50073 6.23941 C
atom 3.75642 0.01755 7.17688 H
atom 3.48687 0.55572 4.98235 C
atom 2.54831 0.28371 3.81588 C
atom 2.51284 -0.75811 3.47210 H
atom 1.52024 0.64708 3.94200 H
atom 3.48377 1.23186 2.95401 C
atom 3.98564 0.73725 2.11229 H
atom 2.99530 2.14325 2.58577 H
atom 4.32614 1.40432 4.20960 C
atom 5.32704 1.84209 5.01793 C
atom 6.19517 2.48286 4.93084 H
