lattice_vector 12.152371 0.0 0.0
lattice_vector 0.0 5.565329 0.0
lattice_vector -2.61817 0.0 3.996402
atom 0.22198 4.15595 2.14443 O
atom 1.24108 4.28418 1.21809 C
atom 0.98149 4.85017 0.33261 H
atom 2.33185 3.63407 1.70225 C
atom 3.75084 3.08816 1.76535 C
atom 4.54586 3.84413 1.80119 H
atom 4.00616 2.34615 0.99783 H
atom 3.35984 2.47391 3.17486 C
atom 3.93087 2.87404 4.02270 H
atom 3.38716 1.37747 3.21869 H
atom 1.98179 3.08486 2.96615 C
atom 0.68769 3.41611 3.21601 C
atom -0.03503 3.25454 4.00556 H
atom 9.31222 1.37329 1.85197 O
atom 8.29312 1.50152 2.77832 C
atom 8.55271 2.06751 3.66379 H
atom 7.20235 0.85141 2.29415 C
atom 5.78336 0.30549 2.23105 C
atom 4.98834 1.06146 2.19521 H
atom 5.52804 -0.43652 2.99858 H
atom 6.17436 -0.30876 0.82154 C
atom 5.60333 0.09138 -0.02629 H
atom 6.14705 -1.40519 0.77772 H
atom 7.55241 0.30220 1.03025 C
atom 8.84651 0.63344 0.78039 C
atom 9.56923 0.47188 -0.00916 H
