title geometry
lattice_vector 6.303894 0.000000 0.000000
lattice_vector 0.000000 15.918608 0.000000
lattice_vector 2.884207 0.000000 3.294167
177.718786 -138.169031 48.790309 8.212122 1.395179 2.940279 /home/trose/genarris_mpi4py/merged_4_17_2019/tests/full_diverse_workflow/harris_single_molecule_prep_aims_dir/geometry
-162.579821 -90.865796 -164.752983 6.770019 14.523425 1.293195 /home/trose/genarris_mpi4py/merged_4_17_2019/tests/full_diverse_workflow/harris_single_molecule_prep_aims_dir/geometry
