lattice_vector 5.815546 0.0 0.0
lattice_vector 0.0 12.762213 0.0
lattice_vector -0.365717 0.0 4.513643
atom 2.77875 1.32582 3.25576 O
atom 3.63338 1.68167 2.22809 C
atom 3.75503 0.93081 1.45789 H
atom 4.10132 2.93125 2.48579 C
atom 4.88340 4.22350 2.30150 C
atom 4.60343 4.82346 1.42601 H
atom 5.97612 4.12151 2.32244 H
atom 4.23813 4.70782 3.66750 C
atom 3.58816 5.58808 3.57983 H
atom 4.95904 4.88224 4.47664 H
atom 3.52181 3.36582 3.70929 C
atom 2.71724 2.36857 4.16209 C
atom 2.07092 2.19426 5.01280 H
atom 2.77875 11.43639 3.25576 O
atom 3.63338 11.08054 2.22809 C
atom 3.75503 11.83140 1.45789 H
atom 4.10132 9.83096 2.48579 C
atom 4.88340 8.53871 2.30150 C
atom 4.60343 7.93875 1.42601 H
atom 5.97612 8.64070 2.32244 H
atom 4.23813 8.05440 3.66750 C
atom 3.58816 7.17413 3.57983 H
atom 4.95904 7.87998 4.47664 H
atom 3.52181 9.39640 3.70929 C
atom 2.71724 10.39364 4.16209 C
atom 2.07092 10.56796 5.01280 H
