title geometry
lattice_vector 8.790337 0.000000 0.000000
lattice_vector 0.000000 3.383981 0.000000
lattice_vector 11.259937 0.000000 8.807303
17.629540 -84.985045 143.303663 7.275875 1.259701 1.865864 /home/trose/genarris_mpi4py/merged_4_17_2019/tests/full_diverse_workflow/harris_single_molecule_prep_aims_dir/geometry
162.370175 -95.014996 -36.696533 12.774400 2.951692 6.941430 /home/trose/genarris_mpi4py/merged_4_17_2019/tests/full_diverse_workflow/harris_single_molecule_prep_aims_dir/geometry
