lattice_vector 11.898476 0.0 0.0
lattice_vector 0.0 4.602295 0.0
lattice_vector -0.680789 0.0 5.896035
atom 7.88348 2.68802 2.80293 O
atom 7.88617 1.90656 1.66169 C
atom 7.21439 2.24015 0.88115 H
atom 8.77220 0.89340 1.84954 C
atom 9.58501 -0.35866 1.55424 C
atom 10.30425 -0.27050 0.72978 H
atom 9.00222 -1.27836 1.41501 H
atom 10.21419 -0.18704 3.00047 C
atom 11.29621 -0.00224 3.00978 H
atom 9.99150 -1.00678 3.69564 H
atom 9.33713 1.04814 3.14512 C
atom 8.77918 2.15126 3.70965 C
atom 8.85668 2.68967 4.64556 H
atom 3.33420 4.98917 3.09311 O
atom 3.33152 4.20771 4.23435 C
atom 4.00330 4.54130 5.01488 H
atom 2.44549 3.19455 4.04649 C
atom 1.63268 1.94248 4.34179 C
atom 0.91343 2.03065 5.16625 H
atom 2.21546 1.02279 4.48103 H
atom 1.00349 2.11411 2.89557 C
atom -0.07852 2.29891 2.88626 H
atom 1.22618 1.29437 2.20039 H
atom 1.88056 3.34929 2.75091 C
atom 2.43850 4.45241 2.18639 C
atom 2.36101 4.99082 1.25048 H
