lattice_vector 6.310201 0.0 0.0
lattice_vector 0.0 2.880708 0.0
lattice_vector -12.565806 0.0 11.010557
atom -0.48735 1.12067 2.64165 O
atom -1.08647 1.85564 1.63467 C
atom -0.48693 1.97526 0.74134 H
atom -2.31580 2.23826 2.06963 C
atom -3.68933 2.89306 2.05625 C
atom -4.39513 2.49348 1.31665 H
atom -3.68986 3.98848 1.98611 H
atom -3.87970 2.32436 3.52501 C
atom -4.69646 1.59886 3.63250 H
atom -3.98713 3.09241 4.30180 H
atom -2.48692 1.72729 3.38540 C
atom -1.35693 1.04783 3.71453 C
atom -0.98489 0.49021 4.56451 H
atom -5.76825 1.12067 8.36891 O
atom -5.16914 1.85564 9.37588 C
atom -5.76868 1.97526 10.26921 H
atom -3.93981 2.23826 8.94093 C
atom -2.56628 2.89306 8.95430 C
atom -1.86048 2.49348 9.69391 H
atom -2.56575 3.98848 9.02445 H
atom -2.37590 2.32436 7.48555 C
atom -1.55915 1.59886 7.37805 H
atom -2.26847 3.09241 6.70876 H
atom -3.76869 1.72729 7.62516 C
atom -4.89867 1.04783 7.29603 C
atom -5.27072 0.49021 6.44605 H
