lattice_vector 6.324086 0.0 0.0
lattice_vector 0.0 13.681224 0.0
lattice_vector -1.49515 0.0 2.701207
atom 3.19331 5.12351 1.60256 O
atom 2.59328 4.02747 1.00947 C
atom 1.88729 4.26565 0.22420 H
atom 3.08127 2.90837 1.60641 C
atom 3.28123 1.43122 1.91229 C
atom 3.71607 0.83583 1.09912 H
atom 2.39905 0.90530 2.29963 H
atom 4.31800 1.88977 3.02214 C
atom 5.34977 1.55691 2.84995 H
atom 4.03171 1.63045 4.04957 H
atom 4.01153 3.31937 2.60004 C
atom 4.06382 4.67721 2.58009 C
atom 4.59095 5.45939 3.11126 H
atom 3.19331 8.55771 1.60256 O
atom 2.59328 9.65376 1.00947 C
atom 1.88729 9.41557 0.22420 H
atom 3.08127 10.77285 1.60641 C
atom 3.28123 12.25000 1.91229 C
atom 3.71607 12.84539 1.09912 H
atom 2.39905 12.77593 2.29963 H
atom 4.31800 11.79145 3.02214 C
atom 5.34977 12.12432 2.84995 H
atom 4.03171 12.05077 4.04957 H
atom 4.01153 10.36185 2.60004 C
atom 4.06382 9.00401 2.58009 C
atom 4.59095 8.22183 3.11126 H
