title geometry
lattice_vector 6.324086 0.000000 0.000000
lattice_vector 0.000000 13.681224 0.000000
lattice_vector -1.495150 0.000000 2.701207
176.277906 -17.852230 -150.857570 3.502737 3.358197 2.042973 /home/trose/genarris_mpi4py/merged_4_17_2019/tests/full_diverse_workflow/harris_single_molecule_prep_aims_dir/geometry
-176.745150 -66.933936 28.384041 3.502737 10.323023 2.042973 /home/trose/genarris_mpi4py/merged_4_17_2019/tests/full_diverse_workflow/harris_single_molecule_prep_aims_dir/geometry
