lattice_vector 8.753699 0.0 0.0
lattice_vector 0.0 5.886287 0.0
lattice_vector 3.303284 0.0 4.994895
atom 6.63058 5.10364 -0.45568 O
atom 5.63046 5.35042 0.46735 C
atom 4.65604 5.54822 0.03935 H
atom 6.17720 5.27129 1.70898 C
atom 6.26889 5.30210 3.22759 C
atom 5.68792 4.53174 3.75090 H
atom 6.06305 6.27433 3.69372 H
atom 7.80936 4.96415 3.05548 C
atom 8.11676 4.00026 3.48143 H
atom 8.49135 5.74316 3.41999 H
atom 7.55749 4.96694 1.55468 C
atom 7.81231 4.86927 0.22337 C
atom 8.66682 4.66331 -0.40846 H
atom 5.42641 2.16049 5.45057 O
atom 6.42652 2.40728 4.52754 C
atom 7.40094 2.60508 4.95554 H
atom 5.87979 2.32815 3.28591 C
atom 5.78810 2.35896 1.76730 C
atom 6.36906 1.58859 1.24400 H
atom 5.99394 3.33118 1.30118 H
atom 4.24762 2.02100 1.93942 C
atom 3.94023 1.05712 1.51347 H
atom 3.56563 2.80001 1.57491 H
atom 4.49950 2.02380 3.44021 C
atom 4.24467 1.92612 4.77152 C
atom 3.39017 1.72016 5.40336 H
