lattice_vector 8.76963691 -0.02513693 -0.18870936
lattice_vector 0.08791229 8.35755125 0.24208777
lattice_vector -5.96053416 0.00928112 8.16018068
atom 5.03864 6.80986 2.67040 C
atom 5.16726 7.97100 2.72390 N
atom 4.86027 5.42313 2.61981 C
atom 3.52214 4.67997 3.46248 S
atom 4.05480 3.11422 2.99481 C
atom 5.20980 3.15853 2.22448 C
atom 5.67099 4.48315 2.00414 C
atom 5.89228 2.10497 1.72310 O
atom 3.52557 2.24271 3.36675 H
atom 6.57306 4.73464 1.45213 H
atom 5.50411 1.24269 2.04568 H
atom 0.86347 2.67856 1.50347 C
atom 0.76683 3.84365 1.52305 N
atom 1.00045 1.28683 1.46732 C
atom 2.33055 0.56214 0.59792 S
atom 1.74142 -1.01494 0.94499 C
atom 0.57365 -0.98670 1.69659 C
atom 0.14967 0.33303 2.00253 C
atom -0.14987 -2.05137 2.10810 O
atom 2.25237 -1.87796 0.52804 H
atom -0.75489 0.57372 2.55548 H
atom 0.24439 -2.90219 1.76232 H
atom -2.14157 1.53186 5.54318 C
atom -2.27026 0.37073 5.48959 N
atom -1.96322 2.91860 5.59376 C
atom -0.62509 3.66177 4.75111 S
atom -1.15780 5.22752 5.21874 C
atom -2.31280 5.18319 5.98908 C
atom -2.77396 3.85856 6.20942 C
atom -2.99531 6.23674 6.49043 O
atom -0.62859 6.09904 4.84681 H
atom -3.67603 3.60704 6.76143 H
atom -2.60715 7.09902 6.16782 H
atom 2.03356 5.66311 6.71010 C
atom 2.13023 4.49802 6.69054 N
atom 1.89656 7.05484 6.74623 C
atom 0.56647 7.77953 7.61565 S
atom 1.15558 9.35661 7.26856 C
atom 2.32336 9.32838 6.51698 C
atom 2.74734 8.00865 6.21102 C
atom 3.04688 10.39305 6.10549 O
atom 0.64464 10.21962 7.68554 H
atom 3.65190 7.76796 5.65808 H
atom 2.65262 11.24386 6.45124 H
