lattice_vector 5.804994 0.0 0.0
lattice_vector 0.0 11.264069 0.0
lattice_vector -0.693157 0.0 2.689165
atom 6.05749 2.93247 0.62506 O
atom 5.45098 1.76978 1.06485 C
atom 6.12812 0.94510 1.24704 H
atom 4.11430 2.00017 1.14876 C
atom 2.63809 1.73361 1.40428 C
atom 2.37178 1.51509 2.44647 H
atom 2.17581 0.97668 0.75759 H
atom 2.37830 3.23340 0.95702 C
atom 1.96023 3.87868 1.74050 H
atom 1.76846 3.34059 0.05069 H
atom 3.88172 3.34478 0.74931 C
atom 5.08341 3.89528 0.43349 C
atom 5.45182 4.85236 0.08694 H
atom 6.05749 8.33160 0.62506 O
atom 5.45098 9.49429 1.06485 C
atom 6.12812 10.31897 1.24704 H
atom 4.11430 9.26390 1.14876 C
atom 2.63809 9.53046 1.40428 C
atom 2.37178 9.74898 2.44647 H
atom 2.17581 10.28739 0.75759 H
atom 2.37830 8.03067 0.95702 C
atom 1.96023 7.38539 1.74050 H
atom 1.76846 7.92347 0.05069 H
atom 3.88172 7.91929 0.74931 C
atom 5.08341 7.36878 0.43349 C
atom 5.45182 6.41171 0.08694 H
