lattice_vector 4.699575 0.0 0.0
lattice_vector 0.0 12.000644 0.0
lattice_vector -2.524089 0.0 5.270621
atom 0.01846 4.93646 1.73535 O
atom -0.89897 3.94525 1.43711 C
atom -1.29198 3.97846 0.42902 H
atom -1.05606 3.17272 2.54406 C
atom -1.57856 2.05793 3.43836 C
atom -1.32602 1.03886 3.11811 H
atom -2.65154 2.09867 3.66619 H
atom -0.63870 2.64521 4.57357 C
atom 0.15399 1.96403 4.90919 H
atom -1.17051 3.02705 5.45459 H
atom -0.21260 3.69823 3.56094 C
atom 0.43439 4.77596 3.04446 C
atom 1.15920 5.50478 3.38402 H
atom 1.28050 7.06418 -0.89996 O
atom 0.36308 8.05539 -1.19820 C
atom -0.02993 8.02218 -2.20629 H
atom 0.20598 8.82793 -0.09125 C
atom -0.31651 9.94272 0.80305 C
atom -0.06397 10.96178 0.48280 H
atom -1.38950 9.90197 1.03088 H
atom 0.62334 9.35544 1.93825 C
atom 1.41603 10.03661 2.27388 H
atom 0.09153 8.97359 2.81928 H
atom 1.04944 8.30241 0.92563 C
atom 1.69644 7.22468 0.40915 C
atom 2.42124 6.49587 0.74871 H
