lattice_vector 14.080049 0.0 0.0
lattice_vector 0.0 5.715148 0.0
lattice_vector 0.840953 0.0 3.282533
atom 6.24364 2.75065 3.41923 O
atom 5.06295 3.43510 3.64419 C
atom 5.17579 4.37537 4.16854 H
atom 4.04658 2.70132 3.11940 C
atom 2.62865 2.30777 2.73195 C
atom 2.13560 2.97140 2.00992 H
atom 1.94242 2.12859 3.56972 H
atom 3.25761 0.99552 2.10003 C
atom 3.12519 0.90163 1.01437 H
atom 2.93584 0.06008 2.57569 H
atom 4.61052 1.52599 2.55177 C
atom 5.95445 1.57726 2.74688 C
atom 6.81404 0.96020 2.51849 H
atom 8.67736 2.75065 -0.13670 O
atom 9.85805 3.43510 -0.36165 C
atom 9.74521 4.37537 -0.88601 H
atom 10.87442 2.70132 0.16314 C
atom 12.29235 2.30777 0.55058 C
atom 12.78540 2.97140 1.27261 H
atom 12.97858 2.12859 -0.28718 H
atom 11.66340 0.99552 1.18251 C
atom 11.79582 0.90163 2.26816 H
atom 11.98516 0.06008 0.70684 H
atom 10.31048 1.52599 0.73076 C
atom 8.96655 1.57726 0.53566 C
atom 8.10696 0.96020 0.76404 H
