lattice_vector 5.93366 0.0 0.0
lattice_vector 0.0 13.254794 0.0
lattice_vector -3.084165 0.0 3.0635
atom -0.10905 11.89482 2.16566 O
atom -0.53008 11.09963 1.11517 C
atom -0.79097 11.63881 0.21350 H
atom -0.49602 9.80568 1.52914 C
atom -0.63968 8.29164 1.47851 C
atom 0.02276 7.77847 0.76952 H
atom -1.66222 7.91855 1.33680 H
atom -0.13375 8.27957 2.98210 C
atom 0.81893 7.75765 3.14018 H
atom -0.86607 7.90204 3.70737 H
atom -0.04118 9.79485 2.87622 C
atom 0.18898 11.08257 3.24453 C
atom 0.53121 11.60675 4.12768 H
atom -0.10905 1.35997 2.16566 O
atom -0.53008 2.15516 1.11517 C
atom -0.79097 1.61598 0.21350 H
atom -0.49602 3.44911 1.52914 C
atom -0.63968 4.96316 1.47851 C
atom 0.02276 5.47632 0.76952 H
atom -1.66222 5.33625 1.33680 H
atom -0.13375 4.97522 2.98210 C
atom 0.81893 5.49714 3.14018 H
atom -0.86607 5.35276 3.70737 H
atom -0.04118 3.45995 2.87622 C
atom 0.18898 2.17223 3.24453 C
atom 0.53121 1.64805 4.12768 H
