lattice_vector 13.927796 0.0 0.0
lattice_vector 0.0 6.045692 0.0
lattice_vector 4.184797 0.0 2.992044
atom 8.27813 1.60259 0.07873 O
atom 7.66269 2.62366 0.78000 C
atom 7.73067 3.59903 0.31542 H
atom 7.12056 2.09094 1.90656 C
atom 6.37210 2.02157 3.22964 C
atom 5.30341 2.26715 3.18040 H
atom 6.82360 2.58286 4.05787 H
atom 6.69311 0.46792 3.23110 C
atom 5.80962 -0.18194 3.18500 H
atom 7.33213 0.13437 4.05889 H
atom 7.40703 0.69826 1.90706 C
atom 8.11550 0.42219 0.78069 C
atom 8.56236 -0.44798 0.31706 H
atom 9.83446 1.60259 2.91331 O
atom 10.44991 2.62366 2.21205 C
atom 10.38192 3.59903 2.67662 H
atom 10.99204 2.09094 1.08548 C
atom 11.74049 2.02157 -0.23759 C
atom 12.80918 2.26715 -0.18835 H
atom 11.28899 2.58286 -1.06582 H
atom 11.41948 0.46792 -0.23906 C
atom 12.30297 -0.18194 -0.19296 H
atom 10.78046 0.13437 -1.06685 H
atom 10.70556 0.69826 1.08499 C
atom 9.99709 0.42219 2.21135 C
atom 9.55023 -0.44798 2.67499 H
