title geometry
lattice_vector 13.927796 0.000000 0.000000
lattice_vector 0.000000 6.045692 0.000000
lattice_vector 4.184797 0.000000 2.992044
115.675869 -62.367331 140.409208 7.387913 1.420098 1.685047 /home/trose/genarris_mpi4py/merged_4_17_2019/tests/full_diverse_workflow/harris_single_molecule_prep_aims_dir/geometry
64.324214 -117.632380 -39.590835 10.724682 1.420098 1.306988 /home/trose/genarris_mpi4py/merged_4_17_2019/tests/full_diverse_workflow/harris_single_molecule_prep_aims_dir/geometry
