lattice_vector 5.058934 0.0 0.0
lattice_vector 0.0 12.423969 0.0
lattice_vector -0.812754 0.0 3.239872
atom 2.87456 11.21016 2.70340 O
atom 1.78311 10.66386 2.05270 C
atom 1.09572 11.38710 1.63292 H
atom 1.88529 9.31072 2.12639 C
atom 1.52985 7.84440 1.92874 C
atom 1.52383 7.49675 0.88761 H
atom 0.60313 7.51320 2.41491 H
atom 2.85561 7.50393 2.73082 C
atom 3.61270 6.95821 2.15289 H
atom 2.69254 6.97888 3.68085 H
atom 3.07427 9.00567 2.84397 C
atom 3.66261 10.18172 3.18696 C
atom 4.55082 10.50015 3.71751 H
atom 2.87456 1.21381 2.70340 O
atom 1.78311 1.76011 2.05270 C
atom 1.09572 1.03687 1.63292 H
atom 1.88529 3.11325 2.12639 C
atom 1.52985 4.57957 1.92874 C
atom 1.52383 4.92722 0.88761 H
atom 0.60313 4.91077 2.41491 H
atom 2.85561 4.92003 2.73082 C
atom 3.61270 5.46576 2.15289 H
atom 2.69254 5.44509 3.68085 H
atom 3.07427 3.41830 2.84397 C
atom 3.66261 2.24225 3.18696 C
atom 4.55082 1.92382 3.71751 H
