title geometry
lattice_vector 6.919888 0.000000 0.000000
lattice_vector 0.000000 10.330092 0.000000
lattice_vector -4.581624 0.000000 4.476224
-160.917435 -86.843969 18.283782 -0.327463 9.444875 2.158132 /home/trose/genarris_mpi4py/merged_4_17_2019/tests/full_diverse_workflow/harris_single_molecule_prep_aims_dir/geometry
148.502498 -38.886093 -134.922614 -2.618274 0.885214 4.396244 /home/trose/genarris_mpi4py/merged_4_17_2019/tests/full_diverse_workflow/harris_single_molecule_prep_aims_dir/geometry
