lattice_vector 5.480254 0.0 0.0
lattice_vector 0.0 6.875093 0.0
lattice_vector 9.97235 0.0 5.941762
atom 9.34970 4.56961 4.33068 O
atom 9.70178 4.09453 3.08030 C
atom 9.96126 3.04403 3.05003 H
atom 9.61891 5.12731 2.20091 C
atom 9.68948 5.88076 0.88073 C
atom 8.98308 5.54787 0.10936 H
atom 10.68870 5.95639 0.43273 H
atom 9.22785 7.16587 1.68837 C
atom 8.25666 7.57500 1.38112 H
atom 9.96250 7.98118 1.70810 H
atom 9.20375 6.27867 2.92455 C
atom 9.04545 5.91447 4.22423 C
atom 8.75436 6.38980 5.15220 H
atom 6.10291 1.13206 1.61108 O
atom 5.75082 0.65698 2.86146 C
atom 5.49134 -0.39352 2.89173 H
atom 5.83369 1.68977 3.74085 C
atom 5.76312 2.44321 5.06103 C
atom 6.46952 2.11032 5.83240 H
atom 4.76390 2.51885 5.50903 H
atom 6.22476 3.72832 4.25339 C
atom 7.19594 4.13745 4.56064 H
atom 5.49011 4.54364 4.23366 H
atom 6.24885 2.84112 3.01721 C
atom 6.40715 2.47692 1.71754 C
atom 6.69824 2.95225 0.78956 H
