title geometry
lattice_vector 19.568241 0.000000 0.000000
lattice_vector 0.000000 4.189973 0.000000
lattice_vector 0.405468 0.000000 3.137408
121.058717 -144.891754 30.565112 12.627619 1.583221 0.184291 /home/trose/genarris_mpi4py/merged_4_17_2019/tests/full_diverse_workflow/harris_single_molecule_prep_aims_dir/geometry
58.940757 -35.108069 -149.434228 7.346092 1.583221 2.953108 /home/trose/genarris_mpi4py/merged_4_17_2019/tests/full_diverse_workflow/harris_single_molecule_prep_aims_dir/geometry
