lattice_vector 3.73508584 0.0 0.0
lattice_vector 0.0 9.79677859 1.3e-07
lattice_vector 0.0 1.3e-07 9.79680214
atom -0.00000 -1.39880 4.89839 C
atom -0.00000 -0.69819 6.10646 C
atom 0.00000 0.69821 6.10646 C
atom -0.00000 1.39882 4.89839 C
atom -0.00000 0.69821 3.69033 C
atom -0.00000 -0.69819 3.69033 C
atom -0.00000 -2.49070 4.89839 H
atom 0.00000 -1.24095 7.05233 H
atom 0.00000 1.24097 7.05233 H
atom 0.00000 2.49072 4.89839 H
atom -0.00000 1.24097 2.74446 H
atom -0.00000 -1.24095 2.74446 H
atom 0.00000 4.89838 -1.39878 C
atom 0.00000 3.69030 -0.69818 C
atom 0.00000 3.69030 0.69820 C
atom 0.00000 4.89838 1.39879 C
atom 0.00000 6.10646 0.69820 C
atom 0.00000 6.10646 -0.69818 C
atom -0.00000 4.89838 -2.49066 H
atom -0.00000 2.74441 -1.24093 H
atom 0.00000 2.74441 1.24095 H
atom 0.00000 4.89838 2.49068 H
atom 0.00000 7.05235 1.24095 H
atom 0.00000 7.05235 -1.24093 H
