# 
# This is the geometry file that corresponds to the current relaxation step.
# If you do not want this file to be written, set the "write_restart_geometry" flag to .false.
#  aims_uuid : 40D74B84-BD96-4D70-A23B-476D50CF73B4                                
# 
lattice_vector      3.73508584      0.00000000      0.00000000
lattice_vector      0.00000000      9.79677859      0.00000013
lattice_vector      0.00000000      0.00000013      9.79680214
atom      -0.00000000     -1.39880003      4.89839169 C
atom      -0.00000000     -0.69818819      6.10645593 C
atom       0.00000000      0.69820851      6.10645586 C
atom      -0.00000000      1.39882029      4.89839180 C
atom      -0.00000000      0.69820840      3.69032785 C
atom      -0.00000000     -0.69818817      3.69032762 C
atom      -0.00000000     -2.49069524      4.89839164 H
atom       0.00000000     -1.24095102      7.05232617 H
atom       0.00000000      1.24097109      7.05232611 H
atom       0.00000000      2.49071555      4.89839187 H
atom      -0.00000000      1.24097059      2.74445762 H
atom      -0.00000000     -1.24095072      2.74445735 H
atom       0.00000000      4.89837844     -1.39877874 C
atom       0.00000000      3.69029557     -0.69818271 C
atom       0.00000000      3.69029578      0.69819834 C
atom       0.00000000      4.89837856      1.39879458 C
atom       0.00000000      6.10646151      0.69819845 C
atom       0.00000000      6.10646156     -0.69818275 C
atom      -0.00000000      4.89837845     -2.49066084 H
atom      -0.00000000      2.74440969     -1.24093332 H
atom       0.00000000      2.74440996      1.24094876 H
atom       0.00000000      4.89837872      2.49067664 H
atom       0.00000000      7.05234748      1.24094930 H
atom       0.00000000      7.05234752     -1.24093372 H
