lattice_vector 4.043154 0.0 0.0
lattice_vector 0.0 13.638383 0.0
lattice_vector 0.287018 0.0 4.078597
atom 1.78120 11.97860 0.35346 O
atom 1.17706 10.83143 -0.12834 C
atom 0.53990 10.98139 -0.99051 H
atom 1.57148 9.79078 0.65162 C
atom 1.68377 8.36491 1.17104 C
atom 2.14862 7.64741 0.48262 H
atom 0.75392 7.92843 1.55800 H
atom 2.65822 8.93857 2.28381 C
atom 3.68392 8.55016 2.23825 H
atom 2.28843 8.83513 3.31211 H
atom 2.44597 10.30477 1.64797 C
atom 2.55944 11.64395 1.44657 C
atom 3.08149 12.47433 1.90456 H
atom 1.78120 1.65978 0.35346 O
atom 1.17706 2.80696 -0.12834 C
atom 0.53990 2.65699 -0.99051 H
atom 1.57148 3.84760 0.65162 C
atom 1.68377 5.27347 1.17104 C
atom 2.14862 5.99098 0.48262 H
atom 0.75392 5.70995 1.55800 H
atom 2.65822 4.69981 2.28381 C
atom 3.68392 5.08823 2.23825 H
atom 2.28843 4.80325 3.31211 H
atom 2.44597 3.33362 1.64797 C
atom 2.55944 1.99443 1.44657 C
atom 3.08149 1.16405 1.90456 H
