lattice_vector 11.705859 0.0 0.0
lattice_vector 0.0 7.349757 0.0
lattice_vector 4.97627 0.0 3.607752
atom 5.55741 4.60181 2.24609 O
atom 6.14594 4.15678 1.07618 C
atom 6.66130 4.92049 0.50788 H
atom 5.90080 2.82481 0.96401 C
atom 5.91558 1.41989 0.37961 C
atom 6.90446 0.94871 0.30929 H
atom 5.40176 1.30329 -0.58333 H
atom 5.06230 0.97864 1.64219 C
atom 5.55825 0.25161 2.29828 H
atom 4.05542 0.61032 1.40687 H
atom 5.13732 2.42914 2.09634 C
atom 4.93914 3.53139 2.86616 C
atom 4.44325 3.77015 3.79832 H
atom 8.04555 2.74795 4.04997 O
atom 8.63407 3.19298 2.88005 C
atom 9.14943 2.42927 2.31176 H
atom 8.38893 4.52495 2.76788 C
atom 8.40372 5.92987 2.18349 C
atom 9.39260 6.40105 2.11316 H
atom 7.88989 6.04647 1.22055 H
atom 7.55043 6.37111 3.44606 C
atom 8.04638 7.09815 4.10216 H
atom 6.54355 6.73944 3.21075 H
atom 7.62545 4.92061 3.90022 C
atom 7.42727 3.81836 4.67004 C
atom 6.93139 3.57961 5.60219 H
