title geometry
lattice_vector 3.889271 0.000000 0.000000
lattice_vector 0.000000 5.886809 0.000000
lattice_vector 11.107289 0.000000 9.045246
45.443860 -41.474128 -50.036439 6.682616 1.444331 4.143088 /home/trose/genarris_mpi4py/merged_4_17_2019/tests/full_diverse_workflow/harris_single_molecule_prep_aims_dir/geometry
-111.952227 -53.873102 -24.920858 12.236261 4.442474 8.665711 /home/trose/genarris_mpi4py/merged_4_17_2019/tests/full_diverse_workflow/harris_single_molecule_prep_aims_dir/geometry
