lattice_vector 7.266442 0.0 0.0
lattice_vector 0.0 4.83382 0.0
lattice_vector -6.228291 0.0 6.824931
atom 0.71749 2.45517 -1.69465 O
atom -0.31602 1.53714 -1.74161 C
atom -0.85629 1.50896 -2.67921 H
atom -0.36474 0.89916 -0.54267 C
atom -0.83518 -0.06185 0.53930 C
atom -0.72294 -1.12816 0.30431 H
atom -1.85247 0.10997 0.91408 H
atom 0.31580 0.53783 1.45173 C
atom 1.09010 -0.18312 1.74448 H
atom -0.03856 1.05782 2.35110 H
atom 0.66777 1.43563 0.27448 C
atom 1.31617 2.38516 -0.44997 C
atom 2.14419 3.06711 -0.30451 H
atom -2.39665 2.37865 1.71782 O
atom -3.43016 3.29668 1.67086 C
atom -3.97044 3.32487 0.73325 H
atom -3.47888 3.93466 2.86979 C
atom -3.94932 4.89567 3.95177 C
atom -3.83709 5.96198 3.71677 H
atom -4.96661 4.72385 4.32654 H
atom -2.79834 4.29599 4.86419 C
atom -2.02405 5.01694 5.15695 H
atom -3.15271 3.77600 5.76357 H
atom -2.44637 3.39819 3.68695 C
atom -1.79797 2.44866 2.96250 C
atom -0.96996 1.76671 3.10795 H
