lattice_vector 6.314507520000003 0.0 -1.3234889800848443e-23
lattice_vector 2.1799295518162656e-07 6.689199290809489 -4.440892098500626e-16
lattice_vector -1.8356051634370615e-07 -3.330953296703903 5.803103089277547
atom 1.57864 4.40810 2.84641 C
atom 1.57864 4.66905 1.47231 C
atom 1.57864 3.61199 0.56046 C
atom 1.57864 2.29149 1.02153 C
atom 1.57864 2.03026 2.39287 C
atom 1.57864 3.08983 3.30583 C
atom 1.57864 5.23453 3.55690 H
atom 1.57864 5.70076 1.11739 H
atom 1.57864 3.81380 -0.51052 H
atom 1.57864 1.46837 0.30540 H
atom 1.57864 1.00181 2.75354 H
atom 1.57864 2.88141 4.37674 H
atom 4.73587 -1.31282 3.41361 C
atom 4.73587 -0.25559 2.49788 C
atom 4.73587 1.06381 2.95397 C
atom 4.73587 1.32813 4.32740 C
atom 4.73587 0.27343 5.24202 C
atom 4.73587 -1.04821 4.78431 C
atom 4.73587 -2.34212 3.05549 H
atom 4.73586 -0.46689 1.42750 H
atom 4.73587 1.88855 2.24152 H
atom 4.73586 2.36065 4.67980 H
atom 4.73587 0.47824 6.31245 H
atom 4.73586 -1.86961 5.50243 H
