# 
# This is the geometry file that corresponds to the current relaxation step.
# If you do not want this file to be written, set the "write_restart_geometry" flag to .false.
#  aims_uuid : F2F1B387-9165-4920-AA4C-2E3C4C1937F7                                
# 
lattice_vector      6.31450752      0.00000007     -0.00000011
lattice_vector     -0.00000004      6.70475834     -0.00610114
lattice_vector     -0.00000008     -3.34518168      5.79268044
atom       1.57863852      1.32417588      3.39882517 C
atom       1.57863990      0.26473285      2.48567701 C
atom       1.57863909     -1.05352720      2.94506316 C
atom       1.57864008     -1.31462271      4.31916164 C
atom       1.57863874     -0.25770847      5.23117444 C
atom       1.57863967      1.06276592      4.77016670 C
atom       1.57864201      2.35272843      3.03847135 H
atom       1.57864414      0.47333279      1.41475447 H
atom       1.57864289     -1.88005063      2.23472174 H
atom       1.57864456     -2.34640160      4.67383895 H
atom       1.57864246     -0.45969523      6.30214914 H
atom       1.57864364      1.88592268      5.48620698 H
atom       4.73586951      2.29957915      2.84397169 C
atom       4.73586849      2.03528588      1.47048974 C
atom       4.73586982      3.09006321      0.55601417 C
atom       4.73586887      4.41160278      1.01395296 C
atom       4.73587001      4.67620203      2.38467950 C
atom       4.73586867      3.61889952      3.30029651 C
atom       4.73586574      1.47471025      3.55623004 H
atom       4.73586407      1.00269935      1.11818903 H
atom       4.73586611      2.88553437     -0.51448081 H
atom       4.73586487      5.23311972      0.29603783 H
atom       4.73586651      5.70558921      2.74262958 H
atom       4.73586443      3.82999964      4.37072928 H
