lattice_vector 6.521979 0.0 0.0
lattice_vector 0.0 10.889755 0.0
lattice_vector -3.102775 0.0 3.367908
atom 0.39201 10.17222 3.71676 O
atom -0.18598 9.98098 2.47480 C
atom -0.79477 10.80503 2.12535 H
atom 0.19035 8.75636 2.02145 C
atom 0.29672 7.55288 1.09634 C
atom 0.79054 7.73989 0.13405 H
atom -0.64207 7.01524 0.91066 H
atom 1.22814 6.89557 2.19965 C
atom 2.25796 6.70166 1.87274 H
atom 0.82458 5.98043 2.65186 H
atom 1.02630 8.16796 3.00967 C
atom 1.13549 9.05094 4.03693 C
atom 1.63485 9.09502 4.99637 H
atom 1.94340 0.71753 2.03281 O
atom 1.36541 0.90877 0.79085 C
atom 0.75662 0.08473 0.44139 H
atom 1.74173 2.13339 0.33749 C
atom 1.84811 3.33688 -0.58762 C
atom 2.34192 3.14987 -1.54991 H
atom 0.90931 3.87451 -0.77330 H
atom 2.77953 3.99418 0.51570 C
atom 3.80935 4.18810 0.18879 H
atom 2.37597 4.90933 0.96791 H
atom 2.57769 2.72180 1.32572 C
atom 2.68688 1.83881 2.35298 C
atom 3.18624 1.79473 3.31241 H
