lattice_vector 4.778172 0.0 0.0
lattice_vector 0.0 14.007637 0.0
lattice_vector 4.171553 0.0 4.0348
atom 2.33867 9.15325 -0.14707 O
atom 1.49150 8.23164 -0.73535 C
atom 1.08156 8.53603 -1.68987 H
atom 1.40833 7.15357 0.08787 C
atom 0.98245 5.78653 0.60299 C
atom 1.30368 4.93188 -0.00630 H
atom -0.08699 5.67739 0.82488 H
atom 1.89441 6.07487 1.86872 C
atom 2.73978 5.38525 1.99029 H
atom 1.34986 6.13470 2.81989 H
atom 2.22683 7.41145 1.22152 C
atom 2.78542 8.63932 1.05660 C
atom 3.46029 9.28465 1.60424 H
atom 6.61105 2.14943 4.18187 O
atom 7.45823 1.22783 4.77015 C
atom 7.86816 1.53221 5.72467 H
atom 7.54140 0.14976 3.94693 C
atom 7.96727 -1.21729 3.43181 C
atom 7.64605 -2.07194 4.04110 H
atom 9.03672 -1.32643 3.20992 H
atom 7.05532 -0.92895 2.16608 C
atom 6.20995 -1.61857 2.04451 H
atom 7.59987 -0.86912 1.21491 H
atom 6.72289 0.40764 2.81328 C
atom 6.16431 1.63550 2.97820 C
atom 5.48944 2.28083 2.43056 H
