lattice_vector 11.23479 0.0 0.0
lattice_vector 0.0 6.910815 0.0
lattice_vector -4.525788 0.0 3.357944
atom 5.43855 7.04420 -0.01877 O
atom 6.29389 6.28013 0.75434 C
atom 7.05573 6.84199 1.27944 H
atom 5.92015 4.97928 0.63207 C
atom 5.92962 3.47130 0.83556 C
atom 5.72342 3.13218 1.85894 H
atom 6.82233 2.95029 0.46613 H
atom 4.68104 3.41815 -0.14174 C
atom 3.75592 3.04637 0.31754 H
atom 4.85528 2.86873 -1.07588 H
atom 4.80023 4.93190 -0.24266 C
atom 4.52354 6.20531 -0.62833 C
atom 3.80108 6.70383 -1.26184 H
atom 3.17566 -0.13339 1.66020 O
atom 4.03100 0.63068 2.43331 C
atom 4.79283 0.06883 2.95841 H
atom 3.65726 1.93153 2.31104 C
atom 3.66672 3.43952 2.51453 C
atom 3.46053 3.77864 3.53791 H
atom 4.55944 3.96053 2.14510 H
atom 2.41814 3.49266 1.53723 C
atom 1.49303 3.86444 1.99651 H
atom 2.59239 4.04209 0.60309 H
atom 2.53733 1.97891 1.43631 C
atom 2.26065 0.70551 1.05064 C
atom 1.53818 0.20699 0.41713 H
