lattice_vector 10.1610588045 0 0
lattice_vector 5.44059808964e-16 8.88517096264 0
lattice_vector 1.01734290758e-15 1.01734290758e-15 16.614470528
atom 5.90645 6.09996 -0.70565 S
atom 8.39674 7.28327 -1.20240 C
atom 6.94140 8.17136 0.92350 C
atom 8.07272 8.76447 -0.29478 S
atom 6.06466 7.06441 0.74726 C
atom 7.54021 6.22851 -1.36959 C
atom 7.90316 5.10533 -2.15583 C
atom 9.68021 7.28207 -1.80786 C
atom 8.15239 4.17229 -2.81029 N
atom 10.73505 7.33201 -2.30340 N
atom 5.29532 6.88942 1.89237 C
atom 4.31091 5.91365 2.14204 C
atom 3.49443 5.11003 2.36120 N
atom 6.87619 8.80823 2.07952 N
atom 5.72032 8.12629 3.03197 S
atom 4.25460 2.78521 7.60158 S
atom 1.76432 1.60190 7.10483 C
atom 3.21966 0.71381 9.23074 C
atom 2.08833 0.12070 8.01246 S
atom 4.09640 1.82076 9.05450 C
atom 2.62085 2.65666 6.93764 C
atom 2.25790 3.77984 6.15140 C
atom 0.48085 1.60311 6.49938 C
atom 2.00867 4.71288 5.49695 N
atom -0.57400 1.55316 6.00384 N
atom 4.86574 1.99575 10.19960 C
atom 5.85015 2.97152 10.44928 C
atom 6.66663 3.77514 10.66844 N
atom 3.28487 0.07694 10.38675 N
atom 4.44073 0.75888 11.33921 S
atom 0.82592 2.78521 -0.70565 S
atom 3.31621 1.60190 -1.20240 C
atom 1.86087 0.71381 0.92350 C
atom 2.99220 0.12070 -0.29478 S
atom 0.98413 1.82076 0.74726 C
atom 2.45968 2.65666 -1.36959 C
atom 2.82263 3.77984 -2.15583 C
atom 4.59968 1.60311 -1.80786 C
atom 3.07186 4.71288 -2.81029 N
atom 5.65453 1.55316 -2.30340 N
atom 0.21479 1.99575 1.89237 C
atom -0.76962 2.97152 2.14204 C
atom -1.58610 3.77514 2.36120 N
atom 1.79566 0.07694 2.07952 N
atom 0.63980 0.75888 3.03197 S
atom 9.33513 6.09996 7.60158 S
atom 6.84484 7.28327 7.10483 C
atom 8.30019 8.17136 9.23074 C
atom 7.16886 8.76447 8.01246 S
atom 9.17693 7.06441 9.05450 C
atom 7.70138 6.22851 6.93764 C
atom 7.33842 5.10533 6.15140 C
atom 5.56138 7.28207 6.49938 C
atom 7.08920 4.17229 5.49695 N
atom 4.50653 7.33201 6.00384 N
atom 9.94627 6.88942 10.19960 C
atom 10.93068 5.91365 10.44928 C
atom 11.74716 5.11003 10.66844 N
atom 8.36540 8.80823 10.38675 N
atom 9.52126 8.12629 11.33921 S
