lattice_vector 14.4567527151 0 0
lattice_vector 8.85220796929e-16 14.4567527151 0
lattice_vector 4.39471392973e-16 4.39471392973e-16 7.17711250752
atom 9.69556 13.83318 3.59745 S
atom 10.98922 15.21290 5.66418 C
atom 9.27870 13.19693 6.32461 C
atom 9.83924 14.75870 6.92671 S
atom 9.23767 12.82273 4.95225 C
atom 10.93316 14.85095 4.34510 C
atom 11.89982 15.31211 3.41539 C
atom 12.02302 16.05845 6.14393 C
atom 12.66090 15.68477 2.61360 N
atom 12.84223 16.76721 6.57673 N
atom 8.71819 11.53838 4.83239 C
atom 8.50987 10.78685 3.65965 C
atom 8.33362 10.15412 2.69577 N
atom 8.83905 12.31008 7.20007 N
atom 8.31348 10.96121 6.41741 S
atom 4.76119 0.62357 3.59745 S
atom 3.46753 -0.75615 5.66418 C
atom 5.17805 1.25982 6.32461 C
atom 4.61751 -0.30195 6.92671 S
atom 5.21909 1.63402 4.95225 C
atom 3.52359 -0.39420 4.34510 C
atom 2.55693 -0.85536 3.41539 C
atom 2.43373 -1.60170 6.14393 C
atom 1.79585 -1.22802 2.61360 N
atom 1.61452 -2.31045 6.57673 N
atom 5.73856 2.91837 4.83239 C
atom 5.94688 3.66990 3.65965 C
atom 6.12314 4.30264 2.69577 N
atom 5.61770 2.14668 7.20007 N
atom 6.14327 3.49555 6.41741 S
atom 13.83318 4.76119 3.57966 S
atom 15.21290 3.46753 1.51294 C
atom 13.19693 5.17805 0.85250 C
atom 14.75870 4.61751 0.25041 S
atom 12.82273 5.21909 2.22486 C
atom 14.85095 3.52359 2.83202 C
atom 15.31211 2.55693 3.76173 C
atom 16.05845 2.43373 1.03318 C
atom 15.68477 1.79585 4.56351 N
atom 16.76721 1.61452 0.60039 N
atom 11.53838 5.73856 2.34472 C
atom 10.78685 5.94688 3.51746 C
atom 10.15412 6.12314 4.48134 N
atom 12.31008 5.61770 -0.02296 N
atom 10.96121 6.14327 0.75971 S
atom 0.62357 9.69556 3.57966 S
atom -0.75615 10.98922 1.51294 C
atom 1.25982 9.27870 0.85250 C
atom -0.30195 9.83924 0.25041 S
atom 1.63402 9.23767 2.22486 C
atom -0.39420 10.93316 2.83202 C
atom -0.85536 11.89982 3.76173 C
atom -1.60170 12.02302 1.03318 C
atom -1.22802 12.66090 4.56351 N
atom -2.31045 12.84223 0.60039 N
atom 2.91837 8.71819 2.34472 C
atom 3.66990 8.50987 3.51746 C
atom 4.30264 8.33362 4.48134 N
atom 2.14668 8.83905 -0.02296 N
atom 3.49555 8.31348 0.75971 S
