lattice_vector 14.6602783897 0 0
lattice_vector 6.46049851106e-16 10.5507947525 0
lattice_vector 5.93806193535e-16 5.93806193535e-16 9.69759107603
atom 12.60615 8.13257 2.14047 S
atom 13.22529 8.14742 4.87269 C
atom 11.12649 6.62819 4.02818 C
atom 11.63874 7.59065 5.41639 S
atom 11.54301 6.85265 2.68609 C
atom 13.61005 8.36602 3.57720 C
atom 14.90626 8.85161 3.26815 C
atom 14.11668 8.39525 5.94873 C
atom 15.95393 9.26967 2.97052 N
atom 14.80907 8.60474 6.86386 N
atom 10.92941 5.93084 1.84494 C
atom 11.06546 5.79654 0.44960 C
atom 11.17053 5.67450 -0.70562 N
atom 10.27454 5.63898 4.23282 N
atom 9.89106 4.92294 2.80158 S
atom 2.05413 2.41822 2.14047 S
atom 1.43499 2.40337 4.87269 C
atom 3.53378 3.92261 4.02818 C
atom 3.02153 2.96014 5.41639 S
atom 3.11726 3.69815 2.68609 C
atom 1.05023 2.18477 3.57720 C
atom -0.24598 1.69919 3.26815 C
atom 0.54359 2.15555 5.94873 C
atom -1.29365 1.28112 2.97052 N
atom -0.14879 1.94605 6.86386 N
atom 3.73087 4.61996 1.84494 C
atom 3.59482 4.75426 0.44960 C
atom 3.48975 4.87630 -0.70562 N
atom 4.38574 4.91181 4.23282 N
atom 4.76922 5.62786 2.80158 S
atom 5.27601 7.69362 6.98927 S
atom 5.89515 7.67877 9.72148 C
atom 3.79635 9.19801 8.87698 C
atom 4.30860 8.23554 10.26519 S
atom 4.21287 8.97354 7.53488 C
atom 6.27991 7.46017 8.42600 C
atom 7.57612 6.97459 8.11695 C
atom 6.78655 7.43094 10.79752 C
atom 8.62379 6.55652 7.81932 N
atom 7.47893 7.22145 11.71265 N
atom 3.59927 9.89536 6.69374 C
atom 3.73532 10.02965 5.29840 C
atom 3.84039 10.15170 4.14317 N
atom 2.94440 10.18721 9.08162 N
atom 2.56092 10.90325 7.65037 S
atom 9.38427 2.85717 6.98927 S
atom 8.76513 2.87202 9.72148 C
atom 10.86392 1.35279 8.87698 C
atom 10.35167 2.31525 10.26519 S
atom 10.44740 1.57725 7.53488 C
atom 8.38037 3.09062 8.42600 C
atom 7.08416 3.57621 8.11695 C
atom 7.87373 3.11985 10.79752 C
atom 6.03649 3.99428 7.81932 N
atom 7.18135 3.32935 11.71265 N
atom 11.06100 0.65544 6.69374 C
atom 10.92496 0.52114 5.29840 C
atom 10.81989 0.39910 4.14317 N
atom 11.71588 0.36359 9.08162 N
atom 12.09936 -0.35246 7.65037 S
