lattice_vector 9.68566208973 0 0
lattice_vector 6.46418237291e-16 10.5568109555 0
lattice_vector 8.98276539184e-16 8.98276539184e-16 14.6699691668
atom -0.14577 9.12037 0.49117 S
atom 0.72443 11.05098 2.32530 C
atom 0.82750 8.42831 3.05823 C
atom 0.55242 10.02667 3.75496 S
atom 0.54907 8.07151 1.70906 C
atom 0.44573 10.69621 1.03279 C
atom 0.58912 11.62376 -0.03048 C
atom 1.17238 12.36009 2.64063 C
atom 0.67300 12.35998 -0.93154 N
atom 1.52287 13.42964 2.94718 N
atom 0.85812 6.73101 1.50585 C
atom 0.73870 5.97729 0.32214 C
atom 0.64543 5.34276 -0.65211 N
atom 1.30346 7.47733 3.84266 N
atom 1.42159 6.06547 3.00544 S
atom 9.83144 1.43644 7.82616 S
atom 8.96123 -0.49417 9.66029 C
atom 8.85817 2.12850 10.39322 C
atom 9.13325 0.53014 11.08995 S
atom 9.13659 2.48530 9.04404 C
atom 9.23993 -0.13940 8.36778 C
atom 9.09655 -1.06695 7.30451 C
atom 8.51328 -1.80328 9.97561 C
atom 9.01267 -1.80317 6.40344 N
atom 8.16279 -2.87283 10.28216 N
atom 8.82754 3.82581 8.84083 C
atom 8.94696 4.57952 7.65712 C
atom 9.04023 5.21405 6.68288 N
atom 8.38220 3.07948 11.17765 N
atom 8.26408 4.49134 10.34042 S
atom 4.69706 1.43644 0.49117 S
atom 5.56726 -0.49417 2.32530 C
atom 5.67033 2.12850 3.05823 C
atom 5.39525 0.53014 3.75496 S
atom 5.39191 2.48530 1.70906 C
atom 5.28856 -0.13940 1.03279 C
atom 5.43195 -1.06695 -0.03048 C
atom 6.01521 -1.80328 2.64063 C
atom 5.51583 -1.80317 -0.93154 N
atom 6.36570 -2.87283 2.94718 N
atom 5.70095 3.82581 1.50585 C
atom 5.58153 4.57952 0.32214 C
atom 5.48826 5.21405 -0.65211 N
atom 6.14629 3.07948 3.84266 N
atom 6.26442 4.49134 3.00544 S
atom 4.98860 9.12037 7.82616 S
atom 4.11840 11.05098 9.66029 C
atom 4.01534 8.42831 10.39322 C
atom 4.29042 10.02667 11.08995 S
atom 4.29376 8.07151 9.04404 C
atom 4.39710 10.69621 8.36778 C
atom 4.25372 11.62376 7.30451 C
atom 3.67045 12.36009 9.97561 C
atom 4.16984 12.35998 6.40344 N
atom 3.31996 13.42964 10.28216 N
atom 3.98471 6.73101 8.84083 C
atom 4.10413 5.97729 7.65712 C
atom 4.19740 5.34276 6.68288 N
atom 3.53937 7.47733 11.17765 N
atom 3.42124 6.06547 10.34042 S
