lattice_vector 7.88489310391 0 0
lattice_vector 8.99071484675e-16 14.6829516119 0
lattice_vector 1.18764136011 7.23950549986e-16 12.956332402
atom 8.89888 2.10094 6.84771 S
atom 8.62230 1.82947 9.62230 C
atom 6.54276 2.88149 8.20986 C
atom 7.32337 3.01618 9.78732 S
atom 7.19928 2.48993 7.00955 C
atom 9.25006 1.46760 8.46080 C
atom 10.31025 0.52554 8.46182 C
atom 9.01067 1.26664 10.86579 C
atom 11.19935 -0.22857 8.41961 N
atom 9.31083 0.84513 11.91125 N
atom 6.29668 2.51648 5.95201 C
atom 6.52702 2.19852 4.59947 C
atom 6.70490 1.93685 3.47682 N
atom 5.26055 3.18765 8.11812 N
atom 4.76086 3.05080 6.55612 S
atom 8.30506 12.58202 0.36955 S
atom 8.02848 12.85348 3.14414 C
atom 5.94894 11.80146 1.73170 C
atom 6.72955 11.66677 3.30916 S
atom 6.60546 12.19302 0.53138 C
atom 8.65624 13.21535 1.98264 C
atom 9.71642 14.15741 1.98366 C
atom 8.41685 13.41631 4.38762 C
atom 10.60553 14.91152 1.94144 N
atom 8.71701 13.83782 5.43308 N
atom 5.70285 12.16647 -0.52615 C
atom 5.93320 12.48443 -1.87869 C
atom 6.11108 12.74610 -3.00135 N
atom 4.66673 11.49530 1.63995 N
atom 4.16703 11.63215 0.07796 S
atom 4.95643 9.44241 6.84771 S
atom 4.67985 9.17094 9.62230 C
atom 2.60032 10.22297 8.20986 C
atom 3.38093 10.35766 9.78732 S
atom 3.25683 9.83141 7.00955 C
atom 5.30762 8.80908 8.46080 C
atom 6.36780 7.86702 8.46182 C
atom 5.06822 8.60812 10.86579 C
atom 7.25690 7.11290 8.41961 N
atom 5.36838 8.18661 11.91125 N
atom 2.35423 9.85796 5.95201 C
atom 2.58457 9.54000 4.59947 C
atom 2.76246 9.27833 3.47682 N
atom 1.31810 10.52913 8.11812 N
atom 0.81841 10.39228 6.55612 S
atom 4.36261 5.24054 0.36955 S
atom 4.08603 5.51201 3.14414 C
atom 2.00650 4.45998 1.73170 C
atom 2.78711 4.32529 3.30916 S
atom 2.66301 4.85154 0.53138 C
atom 4.71380 5.87387 1.98264 C
atom 5.77398 6.81593 1.98366 C
atom 4.47440 6.07483 4.38762 C
atom 6.66308 7.57005 1.94144 N
atom 4.77456 6.49635 5.43308 N
atom 1.76041 4.82499 -0.52615 C
atom 1.99075 5.14296 -1.87869 C
atom 2.16864 5.40463 -3.00135 N
atom 0.72428 4.15382 1.63995 N
atom 0.22459 4.29067 0.07796 S
