lattice_vector 7.03443623909 0 0
lattice_vector 1.04410178676e-15 17.0514761887 0
lattice_vector 6.27314012547 4.72562831007e-16 12.5054688466
atom 7.17780 15.51230 5.81491 S
atom 5.15314 17.38978 6.28861 C
atom 7.37606 18.19566 4.93384 C
atom 6.17830 18.81306 6.07403 S
atom 7.76870 16.83200 4.82729 C
atom 5.54655 16.08225 6.19000 C
atom 4.63425 15.02144 6.42202 C
atom 3.81476 17.72438 6.62123 C
atom 3.92317 14.11911 6.62485 N
atom 2.73132 18.04441 6.91188 N
atom 8.74878 16.70191 3.84939 C
atom 9.40626 15.53184 3.42255 C
atom 9.95696 14.56980 3.05966 N
atom 7.97783 19.05607 4.13148 N
atom 9.09089 18.27539 3.20418 S
atom 10.31437 1.53918 12.06765 S
atom 8.28971 -0.33830 12.54134 C
atom 10.51264 -1.14418 11.18658 C
atom 9.31487 -1.76159 12.32677 S
atom 10.90527 0.21948 11.08003 C
atom 8.68312 0.96922 12.44273 C
atom 7.77082 2.03004 12.67475 C
atom 6.95133 -0.67291 12.87396 C
atom 7.05974 2.93237 12.87758 N
atom 5.86789 -0.99293 13.16462 N
atom 11.88535 0.34957 10.10212 C
atom 12.54283 1.51963 9.67528 C
atom 13.09353 2.48167 9.31240 N
atom 11.11440 -2.00459 10.38421 N
atom 12.22746 -1.22392 9.45692 S
atom 3.66058 6.98656 5.81491 S
atom 1.63593 8.86404 6.28861 C
atom 3.85885 9.66992 4.93384 C
atom 2.66108 10.28733 6.07403 S
atom 4.25148 8.30626 4.82729 C
atom 2.02934 7.55651 6.19000 C
atom 1.11703 6.49570 6.42202 C
atom 0.29754 9.19865 6.62123 C
atom 0.40595 5.59337 6.62485 N
atom -0.78590 9.51867 6.91188 N
atom 5.23156 8.17617 3.84939 C
atom 5.88904 7.00611 3.42255 C
atom 6.43974 6.04407 3.05966 N
atom 4.46061 10.53033 4.13148 N
atom 5.57368 9.74966 3.20418 S
atom 6.79715 10.06491 12.06765 S
atom 4.77250 8.18744 12.54134 C
atom 6.99542 7.38156 11.18658 C
atom 5.79765 6.76415 12.32677 S
atom 7.38805 8.74522 11.08003 C
atom 5.16591 9.49496 12.44273 C
atom 4.25360 10.55578 12.67475 C
atom 3.43411 7.85283 12.87396 C
atom 3.54252 11.45811 12.87758 N
atom 2.35067 7.53280 13.16462 N
atom 8.36813 8.87531 10.10212 C
atom 9.02561 10.04537 9.67528 C
atom 9.57631 11.00741 9.31240 N
atom 7.59718 6.52114 10.38421 N
atom 8.71025 7.30182 9.45692 S
