lattice_vector 15.9242177394 0 0
lattice_vector 7.39033135187e-16 12.0693270207 0
lattice_vector 4.77893312427e-16 4.77893312427e-16 7.80459007054
atom 5.11416 8.27304 1.74830 S
atom 6.95941 8.49487 3.84458 C
atom 4.52869 7.38089 4.37076 C
atom 5.76699 8.37383 5.14312 S
atom 4.27909 7.33752 2.97043 C
atom 6.70373 8.45868 2.50017 C
atom 7.74669 8.60427 1.55017 C
atom 8.28089 8.67380 4.32991 C
atom 8.57026 8.74069 0.73525 N
atom 9.34755 8.83921 4.77221 N
atom 3.21980 6.47503 2.71007 C
atom 2.65279 6.13964 1.46526 C
atom 2.17532 5.85313 0.44037 N
atom 3.75327 6.63722 5.14011 N
atom 2.63950 5.84890 4.22017 S
atom 10.81006 3.79629 1.74830 S
atom 8.96481 3.57446 3.84458 C
atom 11.39552 4.68844 4.37076 C
atom 10.15722 3.69550 5.14312 S
atom 11.64513 4.73181 2.97043 C
atom 9.22049 3.61065 2.50017 C
atom 8.17753 3.46505 1.55017 C
atom 7.64333 3.39552 4.32991 C
atom 7.35395 3.32864 0.73525 N
atom 6.57667 3.23012 4.77221 N
atom 12.70442 5.59430 2.71007 C
atom 13.27143 5.92969 1.46526 C
atom 13.74890 6.21620 0.44037 N
atom 12.17095 5.43210 5.14011 N
atom 13.28472 6.22042 4.22017 S
atom 13.07627 9.83095 1.74830 S
atom 14.92152 9.60912 3.84458 C
atom 12.49080 10.72310 4.37076 C
atom 13.72910 9.73016 5.14312 S
atom 12.24120 10.76647 2.97043 C
atom 14.66584 9.64531 2.50017 C
atom 15.70880 9.49972 1.55017 C
atom 16.24299 9.43019 4.32991 C
atom 16.53237 9.36330 0.73525 N
atom 17.30965 9.26478 4.77221 N
atom 11.18191 11.62896 2.71007 C
atom 10.61490 11.96435 1.46526 C
atom 10.13743 12.25086 0.44037 N
atom 11.71538 11.46677 5.14011 N
atom 10.60161 12.25509 4.22017 S
atom 2.84795 2.23837 1.74830 S
atom 1.00270 2.46021 3.84458 C
atom 3.43342 1.34622 4.37076 C
atom 2.19511 2.33916 5.14312 S
atom 3.68302 1.30285 2.97043 C
atom 1.25838 2.42402 2.50017 C
atom 0.21542 2.56961 1.55017 C
atom -0.31878 2.63914 4.32991 C
atom -0.60816 2.70602 0.73525 N
atom -1.38544 2.80455 4.77221 N
atom 4.74231 0.44036 2.71007 C
atom 5.30932 0.10498 1.46526 C
atom 5.78679 -0.18153 0.44037 N
atom 4.20884 0.60256 5.14011 N
atom 5.32261 -0.18576 4.22017 S
