lattice_vector 11.7040513722 0 0
lattice_vector 4.83634620762e-16 7.89835275115 0
lattice_vector 9.93572058693e-16 9.93572058693e-16 16.2262631052
atom 4.43119 9.09989 4.37822 S
atom 4.76461 6.41785 3.64063 C
atom 2.79397 7.03729 5.41802 C
atom 3.93611 5.74322 5.04818 S
atom 3.00330 8.41388 5.12433 C
atom 4.96503 7.74567 3.37444 C
atom 5.68143 8.16400 2.22412 C
atom 5.26411 5.41671 2.76766 C
atom 6.28208 8.55128 1.30205 N
atom 5.67430 4.56105 2.08917 N
atom 1.91882 9.15892 5.57444 C
atom 1.71693 10.54975 5.48301 C
atom 1.53765 11.70012 5.41246 N
atom 1.66893 6.72141 6.03504 N
atom 0.79061 8.08098 6.33232 S
atom 7.27286 -1.20154 12.49136 S
atom 6.93945 1.48050 11.75376 C
atom 8.91008 0.86107 13.53115 C
atom 7.76794 2.15513 13.16131 S
atom 8.70075 -0.51553 13.23746 C
atom 6.73902 0.15268 11.48757 C
atom 6.02262 -0.26565 10.33725 C
atom 6.43994 2.48164 10.88079 C
atom 5.42197 -0.65293 9.41518 N
atom 6.02975 3.33730 10.20231 N
atom 9.78523 -1.26056 13.68757 C
atom 9.98712 -2.65139 13.59614 C
atom 10.16640 -3.80176 13.52559 N
atom 10.03512 1.17694 14.14817 N
atom 10.91344 -0.18263 14.44545 S
atom 10.28322 -1.20154 4.37822 S
atom 10.61663 1.48050 3.64063 C
atom 8.64600 0.86107 5.41802 C
atom 9.78814 2.15513 5.04818 S
atom 8.85533 -0.51553 5.12433 C
atom 10.81706 0.15268 3.37444 C
atom 11.53345 -0.26565 2.22412 C
atom 11.11614 2.48164 2.76766 C
atom 12.13410 -0.65293 1.30205 N
atom 11.52632 3.33730 2.08917 N
atom 7.77084 -1.26056 5.57444 C
atom 7.56896 -2.65139 5.48301 C
atom 7.38967 -3.80176 5.41246 N
atom 7.52095 1.17694 6.03504 N
atom 6.64263 -0.18263 6.33232 S
atom 1.42083 9.09989 12.49136 S
atom 1.08742 6.41785 11.75376 C
atom 3.05805 7.03729 13.53115 C
atom 1.91591 5.74322 13.16131 S
atom 2.84872 8.41388 13.23746 C
atom 0.88700 7.74567 11.48757 C
atom 0.17060 8.16400 10.33725 C
atom 0.58791 5.41671 10.88079 C
atom -0.43005 8.55128 9.41518 N
atom 0.17773 4.56105 10.20231 N
atom 3.93321 9.15892 13.68757 C
atom 4.13509 10.54975 13.59614 C
atom 4.31438 11.70012 13.52559 N
atom 4.18310 6.72141 14.14817 N
atom 5.06142 8.08098 14.44545 S
