lattice_vector 10.998581 0.0 0.0
lattice_vector 0.0 8.031672 0.0
lattice_vector -0.363603 0.0 3.256349
atom 3.83958 6.85074 1.91344 O
atom 2.47684 6.94409 1.69582 C
atom 2.15971 7.84096 1.17926 H
atom 1.89235 5.83257 2.21519 C
atom 0.79609 4.85165 2.60449 C
atom 0.25690 4.39026 1.76710 H
atom 0.06295 5.22619 3.33050 H
atom 1.94313 3.95027 3.22797 C
atom 2.06361 2.96867 2.75158 H
atom 1.87247 3.80772 4.31402 H
atom 2.92058 5.02410 2.77263 C
atom 4.10226 5.66611 2.57691 C
atom 5.14724 5.49107 2.79872 H
atom 6.79540 2.83491 1.34291 O
atom 8.15814 2.92825 1.56052 C
atom 8.47526 3.82512 2.07709 H
atom 8.74263 1.81674 1.04115 C
atom 9.83888 0.83581 0.65186 C
atom 10.37808 0.37443 1.48925 H
atom 10.57202 1.21035 -0.07415 H
atom 8.69185 -0.06556 0.02838 C
atom 8.57137 -1.04716 0.50477 H
atom 8.76251 -0.20811 -1.05768 H
atom 7.71440 1.00826 0.48371 C
atom 6.53272 1.65028 0.67944 C
atom 5.48774 1.47523 0.45763 H
