title geometry
lattice_vector 10.998581 0.000000 0.000000
lattice_vector 0.000000 8.031672 0.000000
lattice_vector -0.363603 0.000000 3.256349
127.012541 -38.387607 -163.819719 2.580545 5.601725 2.424171 /home/trose/genarris_mpi4py/merged_4_17_2019/tests/full_diverse_workflow/harris_single_molecule_prep_aims_dir/geometry
52.987184 -141.611859 16.179814 8.054435 1.585889 0.832169 /home/trose/genarris_mpi4py/merged_4_17_2019/tests/full_diverse_workflow/harris_single_molecule_prep_aims_dir/geometry
