lattice_vector 7.409624 0.0 0.0
lattice_vector 0.0 8.71035 0.0
lattice_vector 6.566853 0.0 3.911681
atom 8.76981 6.78640 0.75047 O
atom 7.87569 5.73771 0.63250 C
atom 8.31315 4.75346 0.74048 H
atom 6.64280 6.26177 0.40404 C
atom 5.14439 6.31217 0.14376 C
atom 4.51175 5.92707 0.95388 H
atom 4.81394 5.86500 -0.80266 H
atom 5.28987 7.89167 0.11366 C
atom 4.73942 8.41707 0.90485 H
atom 5.04587 8.35449 -0.85127 H
atom 6.77302 7.67741 0.37856 C
atom 8.08158 7.97546 0.59230 C
atom 8.69092 8.86707 0.66689 H
atom 5.20667 2.43122 3.16121 O
atom 6.10079 1.38254 3.27918 C
atom 5.66333 0.39828 3.17120 H
atom 7.33368 1.90660 3.50764 C
atom 8.83209 1.95700 3.76792 C
atom 9.46473 1.57190 2.95780 H
atom 9.16254 1.50983 4.71434 H
atom 8.68661 3.53650 3.79802 C
atom 9.23706 4.06189 3.00683 H
atom 8.93061 3.99932 4.76295 H
atom 7.20346 3.32223 3.53312 C
atom 5.89489 3.62029 3.31939 C
atom 5.28556 4.51190 3.24479 H
