title geometry
lattice_vector 5.818820 0.000000 0.000000
lattice_vector 0.000000 9.212038 0.000000
lattice_vector -4.608790 0.000000 4.378061
5.416571 -153.459043 -96.590920 1.304859 6.614850 0.774942 /home/trose/genarris_mpi4py/merged_4_17_2019/tests/full_diverse_workflow/harris_single_molecule_prep_aims_dir/geometry
174.583791 -26.540804 83.408663 -0.094827 2.008831 3.603111 /home/trose/genarris_mpi4py/merged_4_17_2019/tests/full_diverse_workflow/harris_single_molecule_prep_aims_dir/geometry
