lattice_vector 7.138604 0.0 0.0
lattice_vector 0.0 7.705674 0.0
lattice_vector -4.428663 0.0 4.572686
atom -0.36837 8.21239 2.63775 O
atom 0.98029 8.18604 2.94361 C
atom 1.51004 9.10813 2.74132 H
atom 1.27465 6.95364 3.43489 C
atom 2.09903 5.81089 4.00940 C
atom 2.52474 5.99053 5.00506 H
atom 2.88959 5.42270 3.35428 H
atom 0.76082 4.95878 4.00747 C
atom 0.41644 4.64539 5.00155 H
atom 0.77932 4.08088 3.34885 H
atom 0.07496 6.19051 3.43451 C
atom -0.91616 6.97981 2.94304 C
atom -1.97586 6.89038 2.74094 H
atom 1.84596 -0.50672 0.35140 O
atom 3.19462 -0.48037 0.65727 C
atom 3.72437 -1.40245 0.45498 H
atom 3.48899 0.75204 1.14855 C
atom 4.31336 1.89479 1.72306 C
atom 4.73907 1.71515 2.71872 H
atom 5.10392 2.28298 1.06794 H
atom 2.97515 2.74689 1.72113 C
atom 2.63077 3.06028 2.71521 H
atom 2.99365 3.62480 1.06251 H
atom 2.28929 1.51517 1.14816 C
atom 1.29817 0.72587 0.65670 C
atom 0.23847 0.81529 0.45460 H
