lattice_vector 10.562365 0.0 0.0
lattice_vector 0.0 7.233662 0.0
lattice_vector 0.440912 0.0 2.999532
atom 2.61856 4.54213 0.70726 O
atom 1.54501 3.67900 0.58227 C
atom 0.61536 4.14981 0.28921 H
atom 1.97901 2.42505 0.87566 C
atom 1.93610 0.91997 1.09574 C
atom 1.70849 0.31945 0.20557 H
atom 1.29639 0.58118 1.92088 H
atom 3.47931 1.01471 1.45133 C
atom 4.14089 0.46710 0.76764 H
atom 3.72850 0.73311 2.48256 H
atom 3.36241 2.50983 1.19290 C
atom 3.73183 3.81308 1.08367 C
atom 4.63539 4.39555 1.21057 H
atom 8.38471 4.54213 2.29227 O
atom 9.45826 3.67900 2.41726 C
atom 10.38791 4.14981 2.71032 H
atom 9.02426 2.42505 2.12387 C
atom 9.06717 0.91997 1.90379 C
atom 9.29479 0.31945 2.79396 H
atom 9.70688 0.58118 1.07865 H
atom 7.52397 1.01471 1.54821 C
atom 6.86238 0.46710 2.23189 H
atom 7.27477 0.73311 0.51697 H
atom 7.64086 2.50983 1.80664 C
atom 7.27145 3.81308 1.91587 C
atom 6.36788 4.39555 1.78896 H
