title geometry
lattice_vector 10.562365 0.000000 0.000000
lattice_vector 0.000000 7.233662 0.000000
lattice_vector 0.440912 0.000000 2.999532
166.353898 -50.358157 -156.982742 2.664109 2.719783 0.995435 /home/trose/genarris_mpi4py/merged_4_17_2019/tests/full_diverse_workflow/harris_single_molecule_prep_aims_dir/geometry
13.646011 -129.641789 23.017131 8.339169 2.719783 2.004087 /home/trose/genarris_mpi4py/merged_4_17_2019/tests/full_diverse_workflow/harris_single_molecule_prep_aims_dir/geometry
