lattice_vector 6.919888 0.0 0.0
lattice_vector 0.0 10.330092 0.0
lattice_vector -4.581624 0.0 4.476224
atom -0.27322 7.60045 2.19271 O
atom -1.27503 8.36711 1.62549 C
atom -2.07879 7.80106 1.17233 H
atom -0.95415 9.67541 1.80501 C
atom -1.06985 11.19107 1.73500 C
atom -1.91846 11.62494 2.27947 H
atom -1.04378 11.62077 0.72528 H
atom 0.31160 11.24634 2.51309 C
atom 0.25979 11.71398 3.50488 H
atom 1.13465 11.70550 1.95042 H
atom 0.28322 9.72485 2.50366 C
atom 0.68089 8.44520 2.72993 C
atom 1.51645 7.94527 3.20295 H
atom -2.56403 2.72964 4.43082 O
atom -3.56584 1.96299 3.86360 C
atom -4.36960 2.52903 3.41044 H
atom -3.24496 0.65469 4.04312 C
atom -3.36067 -0.86098 3.97311 C
atom -4.20928 -1.29485 4.51758 H
atom -3.33459 -1.29068 2.96339 H
atom -1.97921 -0.91625 4.75121 C
atom -2.03102 -1.38388 5.74299 H
atom -1.15616 -1.37541 4.18854 H
atom -2.00759 0.60524 4.74177 C
atom -1.60992 1.88490 4.96805 C
atom -0.77437 2.38482 5.44106 H
