lattice_vector 16.767963 0.0 0.0
lattice_vector 0.0 3.613688 0.0
lattice_vector 4.20803 0.0 3.107264
atom 6.65321 1.71248 0.18367 O
atom 5.62268 1.17285 -0.56461 C
atom 5.51283 1.59319 -1.55609 H
atom 5.00987 0.22291 0.18966 C
atom 4.02289 -0.86909 0.57557 C
atom 4.08676 -1.79252 -0.01438 H
atom 2.97147 -0.55837 0.62875 H
atom 4.76690 -0.92726 1.97555 C
atom 5.25761 -1.88470 2.19355 H
atom 4.14474 -0.64723 2.83539 H
atom 5.67767 0.16982 1.44379 C
atom 6.67838 1.08892 1.41780 C
atom 7.45333 1.43812 2.08812 H
atom 14.32279 3.51933 2.92359 O
atom 15.35331 2.97969 3.67187 C
atom 15.46317 3.40003 4.66336 H
atom 15.96612 2.02976 2.91760 C
atom 16.95310 0.93775 2.53169 C
atom 16.88924 0.01433 3.12164 H
atom 18.00453 1.24847 2.47851 H
atom 16.20909 0.87959 1.13171 C
atom 15.71839 -0.07785 0.91371 H
atom 16.83126 1.15962 0.27187 H
atom 15.29833 1.97666 1.66347 C
atom 14.29761 2.89577 1.68946 C
atom 13.52266 3.24497 1.01914 H
