lattice_vector 14.176085 0.0 0.0
lattice_vector 0.0 3.58158 0.0
lattice_vector 6.243499 0.0 5.243497
atom 7.98834 0.50683 2.22443 O
atom 6.63605 0.54860 2.51196 C
atom 5.99711 0.11090 1.75566 H
atom 6.48260 1.15487 3.71849 C
atom 5.78638 1.73045 4.94304 C
atom 5.25013 1.00310 5.56611 H
atom 5.12436 2.58493 4.75212 H
atom 7.22989 2.11815 5.47490 C
atom 7.52475 1.61614 6.40552 H
atom 7.40060 3.19655 5.58779 H
atom 7.77645 1.50097 4.19577 C
atom 8.68132 1.09561 3.26638 C
atom 9.75659 1.11633 3.14323 H
atom 4.86659 3.07475 -0.39732 O
atom 3.51430 3.03298 -0.10979 C
atom 2.87536 3.47068 -0.86609 H
atom 3.36086 2.42671 1.09674 C
atom 2.66463 1.85113 2.32129 C
atom 2.12838 2.57848 2.94437 H
atom 2.00261 0.99665 2.13037 H
atom 4.10814 1.46343 2.85315 C
atom 4.40300 1.96544 3.78377 H
atom 4.27885 0.38503 2.96604 H
atom 4.65470 2.08061 1.57402 C
atom 5.55957 2.48597 0.64463 C
atom 6.63484 2.46525 0.52148 H
