lattice_vector 13.84415 0.0 0.0
lattice_vector 0.0 5.671518 0.0
lattice_vector 2.830241 0.0 3.210446
atom 11.50553 3.80666 3.75808 O
atom 11.76115 2.57339 3.18639 C
atom 12.05480 1.80078 3.88541 H
atom 11.56242 2.68323 1.84651 C
atom 11.48705 2.27825 0.38164 C
atom 10.72690 1.52442 0.13923 H
atom 12.43870 1.97672 -0.07476 H
atom 11.05334 3.77408 0.07954 C
atom 10.04433 3.88232 -0.33902 H
atom 11.75675 4.33552 -0.54883 H
atom 11.17229 4.02348 1.57603 C
atom 11.14440 4.69197 2.75890 C
atom 10.92058 5.69500 3.09898 H
atom 5.16887 3.80666 -0.54763 O
atom 4.91324 2.57339 0.02406 C
atom 4.61959 1.80078 -0.67497 H
atom 5.11197 2.68323 1.36394 C
atom 5.18735 2.27825 2.82880 C
atom 5.94749 1.52442 3.07122 H
atom 4.23569 1.97672 3.28520 H
atom 5.62105 3.77408 3.13091 C
atom 6.63006 3.88232 3.54946 H
atom 4.91764 4.33552 3.75928 H
atom 5.50210 4.02348 1.63442 C
atom 5.52999 4.69197 0.45155 C
atom 5.75381 5.69500 0.11146 H
