lattice_vector 6.938331 0.0 0.0
lattice_vector 0.0 17.917328 0.0
lattice_vector -2.780386 0.0 2.863394
atom 2.25547 14.25669 -0.24147 O
atom 1.40109 13.39499 -0.90527 C
atom 1.07468 13.73910 -1.87833 H
atom 1.20273 12.30869 -0.11316 C
atom 0.66815 10.95876 0.34231 C
atom 0.98277 10.09848 -0.26247 H
atom -0.41834 10.90607 0.48940 H
atom 1.50597 11.17248 1.67245 C
atom 2.30187 10.43426 1.83553 H
atom 0.90182 11.24577 2.58594 H
atom 1.95481 12.49963 1.07829 C
atom 2.59001 13.69685 0.97804 C
atom 3.26035 14.29320 1.58372 H
atom 0.86528 3.66064 1.19023 O
atom 0.01090 4.52233 0.52643 C
atom -0.31552 4.17823 -0.44663 H
atom -0.18746 5.60863 1.31854 C
atom -0.72204 6.95856 1.77400 C
atom -0.40742 7.81885 1.16923 H
atom -1.80853 7.01126 1.92109 H
atom 0.11578 6.74485 3.10415 C
atom 0.91167 7.48307 3.26723 H
atom -0.48837 6.67156 4.01764 H
atom 0.56462 5.41769 2.50998 C
atom 1.19982 4.22048 2.40974 C
atom 1.87015 3.62413 3.01541 H
