title geometry
lattice_vector 5.058934 0.000000 0.000000
lattice_vector 0.000000 12.423969 0.000000
lattice_vector -0.812754 0.000000 3.239872
133.591192 -40.612068 -127.613125 2.527238 9.407662 2.512507 /home/trose/genarris_mpi4py/merged_4_17_2019/tests/full_diverse_workflow/harris_single_molecule_prep_aims_dir/geometry
-151.376000 -87.294663 13.318838 2.527238 3.016304 2.512507 /home/trose/genarris_mpi4py/merged_4_17_2019/tests/full_diverse_workflow/harris_single_molecule_prep_aims_dir/geometry
