lattice_vector 6.207537 0.0 0.0
lattice_vector 0.0 3.15654 0.0
lattice_vector 0.728763 0.0 11.546606
atom 1.58888 1.58466 5.88782 O
atom 0.89978 1.05220 6.96241 C
atom -0.16099 1.26769 6.97364 H
atom 1.78878 0.37701 7.73742 C
atom 2.32225 -0.45956 8.89116 C
atom 1.93560 -1.48526 8.94826 H
atom 2.24401 0.00102 9.88444 H
atom 3.75021 -0.32910 8.21233 C
atom 4.18758 -1.27959 7.88026 H
atom 4.49422 0.20930 8.81351 H
atom 3.06826 0.49273 7.12819 C
atom 2.92227 1.23511 5.99929 C
atom 3.55704 1.60319 5.20342 H
atom 1.22449 1.57188 0.11452 O
atom 0.53540 2.10434 1.18911 C
atom -0.52537 1.88885 1.20033 H
atom 1.42440 2.77953 1.96412 C
atom 1.95786 3.61610 3.11786 C
atom 1.57122 4.64180 3.17495 H
atom 1.87963 3.15552 4.11114 H
atom 3.38583 3.48564 2.43903 C
atom 3.82320 4.43613 2.10696 H
atom 4.12984 2.94724 3.04020 H
atom 2.70388 2.66381 1.35489 C
atom 2.55789 1.92143 0.22599 C
atom 3.19266 1.55335 -0.56988 H
