lattice_vector 5.785882 0.0 0.0
lattice_vector 0.0 9.921772 0.0
lattice_vector -1.673395 0.0 4.72117
atom 1.62242 0.71157 1.78206 O
atom 2.47837 0.85364 2.85923 C
atom 3.37259 0.24539 2.81216 H
atom 1.93126 1.75855 3.71283 C
atom 1.77946 2.64590 4.93966 C
atom 2.53438 3.43547 5.04697 H
atom 1.68620 2.11679 5.89684 H
atom 0.40375 3.12845 4.31400 C
atom 0.36486 4.19635 4.06282 H
atom -0.48274 2.87481 4.90951 H
atom 0.69904 2.19208 3.15131 C
atom 0.53059 1.53893 1.97153 C
atom -0.20782 1.50587 1.18066 H
atom 2.49006 5.67245 2.93911 O
atom 1.63411 5.81452 1.86194 C
atom 0.73990 5.20627 1.90901 H
atom 2.18123 6.71944 1.00834 C
atom 2.33302 7.60678 -0.21849 C
atom 1.57811 8.39635 -0.32580 H
atom 2.42629 7.07767 -1.17567 H
atom 3.70874 8.08934 0.40717 C
atom 3.74763 9.15723 0.65835 H
atom 4.59523 7.83570 -0.18834 H
atom 3.41345 7.15296 1.56986 C
atom 3.58190 6.49982 2.74964 C
atom 4.32031 6.46675 3.54051 H
