lattice_vector 19.331461 0.0 0.0
lattice_vector 0.0 2.922615 0.0
lattice_vector 4.848846 0.0 3.186414
atom 7.08480 2.12668 2.06567 O
atom 7.11522 1.93458 0.69626 C
atom 8.03993 2.22905 0.21668 H
atom 5.92109 1.40564 0.32059 C
atom 4.83669 0.84325 -0.58678 C
atom 5.08361 -0.10215 -1.08686 H
atom 4.43635 1.54130 -1.33332 H
atom 3.94667 0.68755 0.71725 C
atom 3.67872 -0.34713 0.96755 H
atom 3.03461 1.29825 0.72332 H
atom 5.12404 1.26475 1.48956 C
atom 5.85537 1.71184 2.54414 C
atom 5.72367 1.81895 3.61325 H
atom 17.09550 2.12668 1.12075 O
atom 17.06509 1.93458 2.49016 C
atom 16.14038 2.22905 2.96973 H
atom 18.25922 1.40564 2.86582 C
atom 19.34362 0.84325 3.77320 C
atom 19.09670 -0.10215 4.27328 H
atom 19.74396 1.54130 4.51974 H
atom 20.23364 0.68755 2.46916 C
atom 20.50159 -0.34713 2.21886 H
atom 21.14570 1.29825 2.46310 H
atom 19.05626 1.26475 1.69685 C
atom 18.32494 1.71184 0.64227 C
atom 18.45664 1.81895 -0.42684 H
