lattice_vector 5.981858 0.0 0.0
lattice_vector 0.0 14.04976 0.0
lattice_vector 2.554898 0.0 2.723596
atom 6.02900 5.43597 0.24745 O
atom 5.56890 5.09543 1.50660 C
atom 4.98526 5.86224 1.99970 H
atom 5.99829 3.83610 1.78332 C
atom 6.20533 2.54116 2.55520 C
atom 5.29472 1.96362 2.76033 H
atom 6.78028 2.63257 3.48575 H
atom 7.04288 2.03226 1.30763 C
atom 6.61640 1.16022 0.79512 H
atom 8.10146 1.83306 1.51878 H
atom 6.74766 3.37953 0.66457 C
atom 6.75341 4.37374 -0.26191 C
atom 7.16241 4.53485 -1.25114 H
atom 6.02900 8.61379 0.24745 O
atom 5.56890 8.95434 1.50660 C
atom 4.98526 8.18752 1.99970 H
atom 5.99829 10.21366 1.78332 C
atom 6.20533 11.50860 2.55520 C
atom 5.29472 12.08614 2.76033 H
atom 6.78028 11.41719 3.48575 H
atom 7.04288 12.01750 1.30763 C
atom 6.61640 12.88954 0.79512 H
atom 8.10146 12.21670 1.51878 H
atom 6.74766 10.67023 0.66457 C
atom 6.75341 9.67602 -0.26191 C
atom 7.16241 9.51491 -1.25114 H
