title geometry
lattice_vector 5.981858 0.000000 0.000000
lattice_vector 0.000000 14.049760 0.000000
lattice_vector 2.554898 0.000000 2.723596
155.905490 -111.681060 160.002010 6.331939 3.830431 1.105662 /home/trose/genarris_mpi4py/merged_4_17_2019/tests/full_diverse_workflow/harris_single_molecule_prep_aims_dir/geometry
-102.710399 -134.959223 108.516680 6.331939 10.219326 1.105662 /home/trose/genarris_mpi4py/merged_4_17_2019/tests/full_diverse_workflow/harris_single_molecule_prep_aims_dir/geometry
