lattice_vector 11.35005 0.0 0.0
lattice_vector 0.0 3.639862 0.0
lattice_vector 4.06583 0.0 6.472912
atom 8.26493 1.87043 6.10190 O
atom 7.67550 1.37091 7.24914 C
atom 8.01631 1.82629 8.17016 H
atom 6.79359 0.40482 6.88072 C
atom 5.74365 -0.68855 7.01373 C
atom 4.77565 -0.36615 7.41855 H
atom 6.06590 -1.59028 7.55028 H
atom 5.79141 -0.80739 5.43244 C
atom 4.85056 -0.55575 4.92600 H
atom 6.14400 -1.77699 5.05774 H
atom 6.83538 0.29941 5.46341 C
atom 7.74156 1.20438 5.00874 C
atom 8.13697 1.51997 4.05172 H
atom 7.15096 1.87043 0.37102 O
atom 7.74038 1.37091 -0.77623 C
atom 7.39957 1.82629 -1.69725 H
atom 8.62229 0.40482 -0.40780 C
atom 9.67223 -0.68855 -0.54082 C
atom 10.64023 -0.36615 -0.94563 H
atom 9.34998 -1.59028 -1.07737 H
atom 9.62447 -0.80739 1.04048 C
atom 10.56532 -0.55575 1.54691 H
atom 9.27188 -1.77699 1.41517 H
atom 8.58050 0.29941 1.00951 C
atom 7.67432 1.20438 1.46418 C
atom 7.27891 1.51997 2.42119 H
