title geometry
lattice_vector 11.350050 0.000000 0.000000
lattice_vector 0.000000 3.639862 0.000000
lattice_vector 4.065830 0.000000 6.472912
102.053463 -144.767259 170.268960 6.991503 0.536030 6.163642 /home/trose/genarris_mpi4py/merged_4_17_2019/tests/full_diverse_workflow/harris_single_molecule_prep_aims_dir/geometry
77.948087 -35.231669 -9.732774 8.424378 0.536030 0.309261 /home/trose/genarris_mpi4py/merged_4_17_2019/tests/full_diverse_workflow/harris_single_molecule_prep_aims_dir/geometry
