lattice_vector 6.95743 0.0 0.0
lattice_vector 0.0 6.969874 0.0
lattice_vector -4.484734 0.0 5.324198
atom 0.33638 4.20420 3.94253 O
atom -0.38047 3.15696 3.39252 C
atom -0.73758 3.33037 2.38544 H
atom -0.43733 2.15884 4.31305 C
atom -0.78569 0.81353 4.93298 C
atom -0.34603 -0.06193 4.43790 H
atom -1.85632 0.62810 5.08867 H
atom -0.00476 1.30333 6.22415 C
atom 0.88354 0.70902 6.47460 H
atom -0.62622 1.40287 7.12344 H
atom 0.26385 2.59732 5.46964 C
atom 0.72798 3.85011 5.22074 C
atom 1.30027 4.60382 5.74631 H
atom 2.57875 2.76567 1.28043 O
atom 1.86190 3.81292 0.73042 C
atom 1.50479 3.63950 -0.27665 H
atom 1.80503 4.81104 1.65095 C
atom 1.45667 6.15635 2.27088 C
atom 1.89634 7.03180 1.77580 H
atom 0.38605 6.34178 2.42657 H
atom 2.23761 5.66654 3.56205 C
atom 3.12591 6.26085 3.81250 H
atom 1.61615 5.56701 4.46134 H
atom 2.50621 4.37255 2.80754 C
atom 2.97035 3.11976 2.55864 C
atom 3.54264 2.36606 3.08421 H
