title geometry
lattice_vector 6.957430 0.000000 0.000000
lattice_vector 0.000000 6.969874 0.000000
lattice_vector -4.484734 0.000000 5.324198
-94.205075 -9.659568 102.108870 -0.036141 2.600429 4.776311 /home/trose/genarris_mpi4py/merged_4_17_2019/tests/full_diverse_workflow/harris_single_molecule_prep_aims_dir/geometry
-167.840834 -47.032298 41.277628 2.206225 4.369442 2.114212 /home/trose/genarris_mpi4py/merged_4_17_2019/tests/full_diverse_workflow/harris_single_molecule_prep_aims_dir/geometry
