lattice_vector 6.061903 0.0 0.0
lattice_vector 0.0 3.030778 0.0
lattice_vector 6.971617 0.0 12.808621
atom 5.08824 0.40702 1.09131 O
atom 3.97309 0.59862 1.88683 C
atom 3.05094 0.20502 1.47876 H
atom 4.36662 1.25704 3.00864 C
atom 4.26962 1.94197 4.36399 C
atom 3.97041 1.29526 5.19891 H
atom 3.65920 2.85388 4.38992 H
atom 5.83178 2.19482 4.25170 C
atom 6.43271 1.69586 5.02301 H
atom 6.12137 3.25276 4.21006 H
atom 5.76694 1.48230 2.90859 C
atom 6.18663 0.95462 1.72865 C
atom 7.12006 0.85935 1.18878 H
atom 7.94528 0.40702 11.71732 O
atom 9.06043 0.59862 10.92179 C
atom 9.98258 0.20502 11.32986 H
atom 8.66690 1.25704 9.79998 C
atom 8.76390 1.94197 8.44463 C
atom 9.06311 1.29526 7.60971 H
atom 9.37432 2.85388 8.41870 H
atom 7.20174 2.19482 8.55692 C
atom 6.60081 1.69586 7.78561 H
atom 6.91215 3.25276 8.59856 H
atom 7.26658 1.48230 9.90003 C
atom 6.84689 0.95462 11.07997 C
atom 5.91346 0.85935 11.61984 H
