lattice_vector 3.333256 0.0 0.0
lattice_vector 0.0 13.762612 0.0
lattice_vector 1.890058 0.0 5.382698
atom 4.50740 4.78787 3.06079 O
atom 3.83100 4.34024 1.94043 C
atom 3.95185 4.95809 1.05982 H
atom 3.17503 3.19814 2.27532 C
atom 2.29346 1.96719 2.12330 C
atom 2.66302 1.20580 1.42433 H
atom 1.23770 2.16694 1.89896 H
atom 2.59943 1.66551 3.65048 C
atom 3.14323 0.72939 3.83198 H
atom 1.72006 1.69424 4.30678 H
atom 3.45050 2.92705 3.64362 C
atom 4.26653 3.91174 4.10334 C
atom 4.75244 4.16960 5.03566 H
atom 4.50740 8.97474 3.06079 O
atom 3.83100 9.42237 1.94043 C
atom 3.95185 8.80452 1.05982 H
atom 3.17503 10.56447 2.27532 C
atom 2.29346 11.79543 2.12330 C
atom 2.66302 12.55681 1.42433 H
atom 1.23770 11.59567 1.89896 H
atom 2.59943 12.09710 3.65048 C
atom 3.14323 13.03323 3.83198 H
atom 1.72006 12.06837 4.30678 H
atom 3.45050 10.83556 3.64362 C
atom 4.26653 9.85088 4.10334 C
atom 4.75244 9.59301 5.03566 H
