lattice_vector 6.316213 0.0 0.0
lattice_vector 0.0 14.587357 0.0
lattice_vector -1.411943 0.0 3.266837
atom 4.81401 13.36284 0.76014 O
atom 3.98037 12.52488 0.04182 C
atom 3.67353 12.90757 -0.92316 H
atom 3.77151 11.40527 0.78323 C
atom 3.23579 10.03446 1.16977 C
atom 3.56951 9.20204 0.53690 H
atom 2.14666 9.96952 1.28993 H
atom 4.04224 10.19703 2.52627 C
atom 4.83914 9.45714 2.67636 H
atom 3.41736 10.22860 3.42814 H
atom 4.49550 11.55041 1.99830 C
atom 5.12489 12.75434 1.96249 C
atom 5.77757 13.32858 2.60751 H
atom 4.81401 1.22451 0.76014 O
atom 3.98037 2.06247 0.04182 C
atom 3.67353 1.67979 -0.92316 H
atom 3.77151 3.18209 0.78323 C
atom 3.23579 4.55289 1.16977 C
atom 3.56951 5.38532 0.53690 H
atom 2.14666 4.61784 1.28993 H
atom 4.04224 4.39033 2.52627 C
atom 4.83914 5.13021 2.67636 H
atom 3.41736 4.35875 3.42814 H
atom 4.49550 3.03695 1.99830 C
atom 5.12489 1.83301 1.96249 C
atom 5.77757 1.25877 2.60751 H
