title geometry
lattice_vector 6.316213 0.000000 0.000000
lattice_vector 0.000000 14.587357 0.000000
lattice_vector -1.411943 0.000000 3.266837
0.000000 0.000000 0.000000 4.215443 11.707399 1.314470 /home/trose/genarris_mpi4py/merged_4_17_2019/tests/full_diverse_workflow/harris_single_molecule_prep_aims_dir/geometry
-151.984777 -49.600025 28.902158 4.215443 2.879954 1.314470 /home/trose/genarris_mpi4py/merged_4_17_2019/tests/full_diverse_workflow/harris_single_molecule_prep_aims_dir/geometry
