lattice_vector 7.751664 0.0 0.0
lattice_vector 0.0 12.103886 0.0
lattice_vector -3.411746 0.0 2.738655
atom 3.42370 4.49274 3.03373 O
atom 2.25908 3.84147 2.66954 C
atom 1.37249 4.46255 2.66888 H
atom 2.56948 2.54566 2.40237 C
atom 2.37587 1.08832 2.00970 C
atom 2.04339 0.91814 0.97755 H
atom 1.74320 0.49725 2.68440 H
atom 3.93539 0.90891 2.23903 C
atom 4.50142 0.63318 1.33982 H
atom 4.20136 0.21637 3.04804 H
atom 3.96743 2.38532 2.60651 C
atom 4.46888 3.58809 2.99217 C
atom 5.43469 3.99623 3.26137 H
atom 5.12957 7.61115 1.66440 O
atom 3.96496 8.26242 1.30021 C
atom 3.07836 7.64134 1.29956 H
atom 4.27535 9.55823 1.03305 C
atom 4.08174 11.01557 0.64037 C
atom 3.74926 11.18575 -0.39178 H
atom 3.44907 11.60664 1.31507 H
atom 5.64126 11.19497 0.86971 C
atom 6.20729 11.47070 -0.02951 H
atom 5.90724 11.88751 1.67871 H
atom 5.67330 9.71857 1.23718 C
atom 6.17476 8.51580 1.62284 C
atom 7.14056 8.10765 1.89204 H
