lattice_vector 13.872102 0.0 0.0
lattice_vector 0.0 5.564387 0.0
lattice_vector -6.847337 0.0 4.35094
atom 3.25377 -0.18063 3.86292 O
atom 3.77336 -1.06093 2.93114 C
atom 4.13228 -1.99642 3.34081 H
atom 3.68281 -0.47738 1.70717 C
atom 3.81500 -0.30230 0.20138 C
atom 3.22451 -0.99856 -0.40803 H
atom 4.84274 -0.28331 -0.18364 H
atom 3.15534 1.12729 0.39639 C
atom 2.18593 1.25582 -0.10234 H
atom 3.80423 1.97039 0.12630 H
atom 3.09024 0.80324 1.88185 C
atom 2.83661 0.96336 3.20732 C
atom 2.40993 1.72466 3.84778 H
atom -0.16990 5.74501 6.03839 O
atom 0.34969 6.62531 5.10662 C
atom 0.70861 7.56080 5.51628 H
atom 0.25914 6.04177 3.88264 C
atom 0.39133 5.86669 2.37685 C
atom -0.19916 6.56295 1.76744 H
atom 1.41907 5.84770 1.99182 H
atom -0.26833 4.43710 2.57186 C
atom -1.23774 4.30856 2.07313 H
atom 0.38057 3.59400 2.30176 H
atom -0.33343 4.76115 4.05732 C
atom -0.58706 4.60103 5.38279 C
atom -1.01374 3.83973 6.02325 H
