#=======================================================
#FHI-aims file: /lustre/project/nmarom/pkilecdi/isgep/alpha_glycine_for_ga/isgep/older_version/alpha_glycine_10_asym_0/0/harris/geometry.in
#Created using the Atomic Simulation Environment (ASE)
#=======================================================
lattice_vector 8.5137185464999998 0.0000000000000000 0.0000000000000000 
lattice_vector -0.8799954741000000 4.2078730250999996 0.0000000000000000 
lattice_vector 0.0000000000000000 0.0000000000000000 8.8260427466000007 
atom 6.5368769027337796 2.3242204369276629 1.8972070234645906 C
atom 8.0516272664349540 2.1917103322998250 2.0368211930129587 C
atom 9.7133033466278853 2.1619573144219122 0.7913294223690068 H
atom 8.3376994332187184 1.5213346823384106 0.0800898635171456 H
atom 8.4853644988237473 3.1594813301665394 0.2385832309156803 H
atom 8.2963455656667406 1.2442024435072805 2.5251690202805701 H
atom 8.4448149143199274 2.9611118076426233 2.7011276402878650 H
atom 8.7139914450784612 2.2621924959573390 0.7024841889333795 N
atom 6.0740144160995708 2.7490949729735079 0.8116387341402271 O
atom 5.8694521975526399 2.0576006772422328 2.9037639776699411 O
atom 2.3007724077588616 2.4672849270524146 6.9288375042923844 C
atom 3.7907335911625757 2.1638985988971693 6.7892233347440154 C
atom 5.3923640656866327 1.7202405541892698 8.0347151053879671 H
atom 4.2555078515069233 2.7253482258370334 8.7459546642398287 H
atom 3.9315872565597494 1.1127711394440321 8.5874612968412940 H
atom 4.2946090800734975 3.0028072572013871 6.3008755074764045 H
atom 3.9490782731298459 1.3144857908929126 6.1249168874691096 H
atom 4.4057644090256538 1.9081034980398501 8.1235603388235944 N
atom 1.7362577507721308 2.1914529945998282 8.0144057936167474 O
atom 1.7366244498771672 2.9125701333626650 5.9222805500870344 O
atom 2.7200149027337797 0.2202834369276628 1.8972070234645906 C
atom 4.2347652664349535 0.0877733322998252 2.0368211930129587 C
atom 5.8964413466278858 0.0580203144219121 0.7913294223690068 H
atom 4.5208374332187180 -0.5826023176615891 0.0800898635171456 H
atom 4.6685024988237478 1.0555443301665397 0.2385832309156803 H
atom 4.4794835656667402 -0.8597345564927195 2.5251690202805701 H
atom 4.6279529143199278 0.8571748076426233 2.7011276402878650 H
atom 4.8971294450784608 0.1582554959573393 0.7024841889333795 N
atom 2.2571524160995713 0.6451579729735080 0.8116387341402271 O
atom 2.0525901975526404 -0.0463363227577672 2.9037639776699411 O
atom 6.9976294077588612 0.3633479270524147 6.9288375042923844 C
atom 8.4875905911625757 0.0599615988971696 6.7892233347440154 C
atom 10.0892210656866332 -0.3836964458107301 8.0347151053879671 H
atom 8.9523648515069247 0.6214112258370333 8.7459546642398287 H
atom 8.6284442565597494 -0.9911658605559679 8.5874612968412940 H
atom 8.9914660800734971 0.8988702572013874 6.3008755074764045 H
atom 8.6459352731298456 -0.7894512091070873 6.1249168874691096 H
atom 9.1026214090256534 -0.1958335019601498 8.1235603388235944 N
atom 6.4331147507721305 0.0875159945998282 8.0144057936167474 O
atom 6.4334814498771671 0.8086331333626651 5.9222805500870344 O
