lattice_vector 11.20898 0.0 0.0
lattice_vector 0.0 4.052687 0.0
lattice_vector 3.405344 0.0 4.853986
atom 2.56824 3.96551 -0.34493 O
atom 2.33434 3.68323 0.98876 C
atom 1.42886 4.11745 1.39295 H
atom 3.35353 2.90420 1.43731 C
atom 4.19412 2.07501 2.39720 C
atom 3.71573 1.16236 2.77542 H
atom 4.62260 2.62429 3.24546 H
atom 5.19307 1.84374 1.18661 C
atom 5.29222 0.79779 0.86856 H
atom 6.19665 2.26239 1.33624 H
atom 4.24800 2.69576 0.35191 C
atom 3.74819 3.35373 -0.72704 C
atom 4.02804 3.51100 -1.76085 H
atom 12.04608 3.96551 5.19891 O
atom 12.27998 3.68323 3.86523 C
atom 13.18546 4.11745 3.46104 H
atom 11.26080 2.90420 3.41667 C
atom 10.42021 2.07501 2.45679 C
atom 10.89859 1.16236 2.07857 H
atom 9.99173 2.62429 1.60853 H
atom 9.42126 1.84374 3.66737 C
atom 9.32211 0.79779 3.98543 H
atom 8.41767 2.26239 3.51774 H
atom 10.36633 2.69576 4.50208 C
atom 10.86614 3.35373 5.58103 C
atom 10.58629 3.51100 6.61484 H
