lattice_vector 4.635981 0.0 0.0
lattice_vector 0.0 5.722012 0.0
lattice_vector -4.192634 0.0 11.120411
atom 2.73018 4.95589 6.07344 O
atom 3.54376 3.88346 5.75549 C
atom 4.17257 3.53474 6.56467 H
atom 3.31429 3.55370 4.45724 C
atom 3.43927 2.81208 3.13440 C
atom 3.13211 1.75846 3.15355 H
atom 4.41836 2.88356 2.64335 H
atom 2.34210 3.80949 2.57025 C
atom 1.40358 3.33070 2.26216 H
atom 2.68996 4.45788 1.75573 H
atom 2.32990 4.44672 3.95214 C
atom 1.98764 5.29507 4.95713 C
atom 1.31175 6.12905 5.09663 H
atom 0.63386 0.76612 11.63365 O
atom 1.44744 1.83855 11.31569 C
atom 2.07626 2.18727 12.12488 H
atom 1.21798 2.16831 10.01745 C
atom 1.34296 2.90993 8.69461 C
atom 1.03579 3.96356 8.71375 H
atom 2.32205 2.83845 8.20355 H
atom 0.24579 1.91252 8.13045 C
atom -0.69274 2.39131 7.82236 H
atom 0.59364 1.26414 7.31593 H
atom 0.23358 1.27529 9.51234 C
atom -0.10868 0.42694 10.51734 C
atom -0.78457 -0.40704 10.65683 H
