lattice_vector 7.399895 0.0 0.0
lattice_vector 0.0 8.64297 0.0
lattice_vector -1.022436 0.0 3.401896
atom 5.36899 2.75879 2.69393 O
atom 4.73600 3.93613 3.04933 C
atom 5.35545 4.82167 2.98688 H
atom 3.45562 3.63657 3.39245 C
atom 2.02108 3.84472 3.85538 C
atom 1.39373 4.45085 3.18914 H
atom 1.90503 4.21664 4.88158 H
atom 1.83285 2.27767 3.69467 C
atom 1.09557 1.98059 2.93760 H
atom 1.61106 1.74610 4.62907 H
atom 3.28659 2.23233 3.24697 C
atom 4.46885 1.71639 2.81929 C
atom 4.86360 0.74135 2.56378 H
atom 1.00847 7.08027 0.70797 O
atom 1.64146 8.25761 0.35256 C
atom 1.02201 9.14315 0.41502 H
atom 2.92184 7.95806 0.00945 C
atom 4.35638 8.16620 -0.45349 C
atom 4.98372 8.77233 0.21275 H
atom 4.47243 8.53812 -1.47968 H
atom 4.54460 6.59915 -0.29278 C
atom 5.28188 6.30208 0.46430 H
atom 4.76640 6.06759 -1.22717 H
atom 3.09087 6.55382 0.15493 C
atom 1.90861 6.03788 0.58261 C
atom 1.51386 5.06284 0.83812 H
