lattice_vector 4.8252 0.0 0.0
lattice_vector 0.0 9.116396 0.0
lattice_vector -7.483486 0.0 5.211373
atom -0.29559 1.67182 0.43637 O
atom 1.02461 1.97681 0.71416 C
atom 1.67279 2.01977 -0.15177 H
atom 1.14226 2.14481 2.05757 C
atom 1.79274 2.42212 3.40498 C
atom 2.19302 3.43578 3.53576 H
atom 2.55735 1.69952 3.71815 H
atom 0.36079 2.18980 4.04720 C
atom -0.06327 3.06864 4.55000 H
atom 0.29961 1.33133 4.72847 H
atom -0.14143 1.93804 2.63291 C
atom -1.00461 1.65001 1.62354 C
atom -2.05727 1.41958 1.52047 H
atom -0.29559 7.44458 0.43637 O
atom 1.02461 7.13958 0.71416 C
atom 1.67279 7.09662 -0.15177 H
atom 1.14226 6.97159 2.05757 C
atom 1.79274 6.69427 3.40498 C
atom 2.19302 5.68062 3.53576 H
atom 2.55735 7.41688 3.71815 H
atom 0.36079 6.92660 4.04720 C
atom -0.06327 6.04775 4.55000 H
atom 0.29961 7.78506 4.72847 H
atom -0.14143 7.17836 2.63291 C
atom -1.00461 7.46638 1.62354 C
atom -2.05727 7.69682 1.52047 H
