title geometry
lattice_vector 4.825200 0.000000 0.000000
lattice_vector 0.000000 9.116396 0.000000
lattice_vector -7.483486 0.000000 5.211373
39.505798 -48.620746 104.034627 0.403888 1.995559 2.113265 /home/trose/genarris_mpi4py/merged_4_17_2019/tests/full_diverse_workflow/harris_single_molecule_prep_aims_dir/geometry
23.907924 -54.879057 91.195277 0.403888 7.120833 2.113265 /home/trose/genarris_mpi4py/merged_4_17_2019/tests/full_diverse_workflow/harris_single_molecule_prep_aims_dir/geometry
