lattice_vector 13.34055 0.0 0.0
lattice_vector 0.0 3.43918 0.0
lattice_vector 1.953688 0.0 6.280861
atom 11.55931 1.61135 -1.62748 O
atom 10.53697 0.68195 -1.69176 C
atom 10.25242 0.38826 -2.69405 H
atom 10.16001 0.38489 -0.42035 C
atom 9.39279 -0.26776 0.72024 C
atom 9.51966 -1.35408 0.81322 H
atom 8.32107 -0.03442 0.76319 H
atom 10.29604 0.58900 1.70361 C
atom 10.94176 -0.00333 2.36482 H
atom 9.74491 1.31822 2.31134 H
atom 10.97058 1.15167 0.46094 C
atom 11.81834 1.89400 -0.29874 C
atom 12.60789 2.61572 -0.13278 H
atom 3.73493 1.61135 7.90834 O
atom 4.75727 0.68195 7.97262 C
atom 5.04182 0.38826 8.97491 H
atom 5.13423 0.38489 6.70121 C
atom 5.90145 -0.26776 5.56062 C
atom 5.77458 -1.35408 5.46765 H
atom 6.97317 -0.03442 5.51767 H
atom 4.99820 0.58900 4.57726 C
atom 4.35248 -0.00333 3.91604 H
atom 5.54933 1.31822 3.96952 H
atom 4.32366 1.15167 5.81992 C
atom 3.47590 1.89400 6.57960 C
atom 2.68635 2.61572 6.41364 H
