title geometry
lattice_vector 13.340550 0.000000 0.000000
lattice_vector 0.000000 3.439180 0.000000
lattice_vector 1.953688 0.000000 6.280861
-96.148460 -40.976257 83.771855 10.685463 0.871455 -0.180075 /home/trose/genarris_mpi4py/merged_4_17_2019/tests/full_diverse_workflow/harris_single_molecule_prep_aims_dir/geometry
-83.772078 -139.023806 -96.148729 4.608778 0.871455 6.460928 /home/trose/genarris_mpi4py/merged_4_17_2019/tests/full_diverse_workflow/harris_single_molecule_prep_aims_dir/geometry
