lattice_vector 5.224361 0.0 0.0
lattice_vector 0.0 7.285201 0.0
lattice_vector 8.167372 0.0 8.537301
atom 6.03311 -1.55403 6.38590 O
atom 5.59488 -0.29983 6.77069 C
atom 4.64775 -0.29060 7.29475 H
atom 6.51900 0.60997 6.36433 C
atom 7.18627 1.96023 6.14743 C
atom 7.49610 2.48526 7.06022 H
atom 6.63532 2.66229 5.50834 H
atom 8.34973 1.17058 5.41279 C
atom 9.33044 1.24225 5.90071 H
atom 8.46735 1.41567 4.34933 H
atom 7.56240 -0.09797 5.70724 C
atom 7.24423 -1.41896 5.73207 C
atom 7.68019 -2.34732 5.38578 H
atom 7.35862 -1.55403 2.15140 O
atom 7.79685 -0.29983 1.76662 C
atom 8.74399 -0.29060 1.24255 H
atom 6.87274 0.60997 2.17297 C
atom 6.20546 1.96023 2.38987 C
atom 5.89563 2.48526 1.47708 H
atom 6.75641 2.66229 3.02896 H
atom 5.04200 1.17058 3.12452 C
atom 4.06129 1.24225 2.63659 H
atom 4.92438 1.41567 4.18797 H
atom 5.82934 -0.09797 2.83006 C
atom 6.14751 -1.41896 2.80523 C
atom 5.71154 -2.34732 3.15152 H
