title geometry
lattice_vector 5.224361 0.000000 0.000000
lattice_vector 0.000000 7.285201 0.000000
lattice_vector 8.167372 0.000000 8.537301
167.170201 -143.977718 27.916899 6.917713 0.036076 6.077527 /home/trose/genarris_mpi4py/merged_4_17_2019/tests/full_diverse_workflow/harris_single_molecule_prep_aims_dir/geometry
12.829333 -36.022219 -152.082537 6.474021 0.036076 2.459765 /home/trose/genarris_mpi4py/merged_4_17_2019/tests/full_diverse_workflow/harris_single_molecule_prep_aims_dir/geometry
