lattice_vector 9.812555 0.0 0.0
lattice_vector 0.0 10.185542 0.0
lattice_vector 5.132884 0.0 3.323405
atom 11.53835 9.00424 4.09100 O
atom 11.41358 8.57816 2.78104 C
atom 12.28498 8.75047 2.16237 H
atom 10.17549 8.03796 2.63211 C
atom 8.98704 7.36912 1.95701 C
atom 9.15931 6.34308 1.60719 H
atom 8.51984 7.94281 1.14616 H
atom 8.24385 7.47409 3.35471 C
atom 7.98578 6.50886 3.80938 H
atom 7.34972 8.11075 3.34987 H
atom 9.51004 8.13074 3.88519 C
atom 10.36175 8.72478 4.76187 C
atom 10.35109 9.01931 5.80348 H
atom 11.53835 1.18130 4.09100 O
atom 11.41358 1.60738 2.78104 C
atom 12.28498 1.43507 2.16237 H
atom 10.17549 2.14758 2.63211 C
atom 8.98704 2.81642 1.95701 C
atom 9.15931 3.84247 1.60719 H
atom 8.51984 2.24273 1.14616 H
atom 8.24385 2.71145 3.35471 C
atom 7.98578 3.67668 3.80938 H
atom 7.34972 2.07479 3.34987 H
atom 9.51004 2.05481 3.88519 C
atom 10.36175 1.46076 4.76187 C
atom 10.35109 1.16623 5.80348 H
