lattice_vector 8.392383 0.0 0.0
lattice_vector 0.0 4.464989 0.0
lattice_vector -0.419047 0.0 5.193307
atom -0.25105 1.59682 3.33592 O
atom -0.39813 2.67368 4.19141 C
atom -1.41384 3.03180 4.30040 H
atom 0.83002 2.99391 4.67713 C
atom 1.89726 3.73136 5.47255 C
atom 1.80347 3.66300 6.56404 H
atom 2.04838 4.78340 5.19828 H
atom 2.94515 2.72481 4.83562 C
atom 3.45692 2.07797 5.55999 H
atom 3.69862 3.19672 4.19187 H
atom 1.76889 2.09083 4.10739 C
atom 1.08592 1.24607 3.29082 C
atom 1.31465 0.40753 2.64558 H
atom 8.22439 -0.63568 1.85738 O
atom 8.37147 0.44118 1.00190 C
atom 9.38718 0.79931 0.89291 H
atom 7.14331 0.76142 0.51618 C
atom 6.07607 1.49887 -0.27924 C
atom 6.16987 1.43051 -1.37074 H
atom 5.92496 2.55091 -0.00497 H
atom 5.02818 0.49231 0.35768 C
atom 4.51642 -0.15452 -0.36668 H
atom 4.27471 0.96423 1.00144 H
atom 6.20444 -0.14166 1.08591 C
atom 6.88742 -0.98642 1.90248 C
atom 6.65868 -1.82496 2.54773 H
