# 
# This is the geometry file that corresponds to the current relaxation step.
# If you do not want this file to be written, set the "write_restart_geometry" flag to .false.
#  aims_uuid : F2F1B387-9165-4920-AA4C-2E3C4C1937F7                                
# 
lattice_vector      5.41369915      0.00000000      0.00000000
lattice_vector     -0.00000000      7.05010384      0.00000000
lattice_vector      0.00000000      0.00000000      7.05013820
atom       1.18883670      0.00000001      4.92077859 C
atom       1.18884430      1.21238423      4.22419207 C
atom       1.18884430      1.21238422      2.82594613 C
atom       1.18883670     -0.00000001      2.12935962 C
atom       1.18884430     -1.21238423      2.82594614 C
atom       1.18884430     -1.21238422      4.22419208 C
atom       1.18882496      0.00000001      6.01110908 H
atom       1.18884586      2.15273004      4.77641977 H
atom       1.18884585      2.15273003      2.27371842 H
atom       1.18882496     -0.00000001      1.03902913 H
atom       1.18884585     -2.15273004      2.27371844 H
atom       1.18884586     -2.15273003      4.77641979 H
atom       3.89577586      2.12934283      0.00000000 C
atom       3.89576827      2.82592883      1.21238443 C
atom       3.89576827      4.22417502      1.21238442 C
atom       3.89577586      4.92076101     -0.00000000 C
atom       3.89576827      4.22417501     -1.21238443 C
atom       3.89576827      2.82592882     -1.21238442 C
atom       3.89578761      1.03901242      0.00000001 H
atom       3.89576671      2.27370098      2.15273011 H
atom       3.89576671      4.77640287      2.15273010 H
atom       3.89578761      6.01109142     -0.00000001 H
atom       3.89576671      4.77640286     -2.15273011 H
atom       3.89576671      2.27370097     -2.15273010 H
