lattice_vector 7.9 0.0 0.0
lattice_vector 0.3891298187653368 6.01743117818124 0.0
lattice_vector -5.330034036765569 -2.079569187080184 12.260792354618326
atom -1.11724 -0.60978 4.76945 C
atom 4.07634 4.54764 7.49134 C
atom -0.47462 0.27171 3.94675 C
atom 3.43371 3.66615 8.31404 C
atom -0.41846 0.01143 2.50120 C
atom 3.37756 3.92643 9.75959 C
atom 0.21327 0.85989 1.66747 C
atom 2.74582 3.07797 10.59332 C
atom 0.29884 0.61142 0.25870 C
atom 2.66025 3.32644 12.00209 C
atom -4.42242 -0.63158 11.62814 C
atom 7.38151 4.56944 0.63266 C
atom 7.33428 4.83156 2.00709 C
atom -4.37518 -0.89369 10.25370 C
atom 6.63232 3.93548 2.88742 C
atom -3.67323 0.00238 9.37338 C
atom -1.32768 4.19072 4.27043 C
atom 4.28678 -0.25286 7.99036 C
atom -1.13900 -0.37565 5.76257 H
atom 4.09810 4.31352 6.49822 H
atom -0.06203 1.18176 4.27902 H
atom 3.02112 2.75611 7.98178 H
atom 0.64870 1.78704 2.02303 H
atom 2.31040 2.15082 10.23776 H
atom -4.00319 0.30094 11.99105 H
atom 6.96229 3.63692 0.26974 H
atom 6.29658 3.03995 2.47668 H
atom -3.33749 0.89791 9.78411 H
atom -1.76455 3.50674 4.90432 H
atom 4.72365 0.43112 7.35648 H
atom 2.49066 2.63037 4.64316 C
atom 0.46843 1.30749 7.61763 C
atom 2.49649 3.51925 3.59241 C
atom 0.46260 0.41862 8.66838 C
atom 3.13806 3.12373 2.38718 C
atom -0.17896 0.81413 9.87362 C
atom 3.20983 3.99848 1.28493 C
atom -0.25073 -0.06061 10.97586 C
atom 3.87523 3.68389 0.06376 C
atom -0.91613 0.25397 12.19704 C
atom -1.40369 2.45127 11.24069 C
atom 4.36278 1.48659 1.02010 C
atom 3.72554 1.81915 2.22043 C
atom -0.76645 2.11871 10.04036 C
atom 3.65055 0.98691 3.29202 C
atom -0.69146 2.95095 8.96877 C
atom 3.04541 1.27228 4.46906 C
atom -0.08632 2.66558 7.79173 C
atom 2.02800 2.96721 5.56640 H
atom 0.93110 0.97066 6.69439 H
atom 2.06338 4.49258 3.73954 H
atom 0.89572 -0.55472 8.52125 H
atom 2.78032 4.99809 1.39773 H
atom 0.17878 -1.06023 10.86306 H
atom -1.82821 3.40762 11.37802 H
atom 4.78731 0.53024 0.88278 H
atom 4.09763 0.00942 3.10198 H
atom -1.13854 3.92844 9.15881 H
atom 3.00496 0.59647 5.21084 H
atom -0.04587 3.34139 7.04996 H
