lattice_vector 3.541908 0.0 0.0
lattice_vector 0.0 14.008434 0.0
lattice_vector 6.670233 0.0 4.905996
atom 7.66084 5.52694 3.44072 O
atom 6.78672 4.69968 2.75906 C
atom 6.45231 5.08143 1.80290 H
atom 6.58436 3.58916 3.51578 C
atom 6.03804 2.23113 3.93149 C
atom 6.33351 1.38842 3.29323 H
atom 4.95295 2.18713 4.09118 H
atom 6.89571 2.38795 5.25690 C
atom 7.68388 1.63450 5.38375 H
atom 6.30442 2.43716 6.18037 H
atom 7.35421 3.72912 4.70295 C
atom 8.00372 4.92095 4.63561 C
atom 8.68959 5.48739 5.25249 H
atom 7.66084 8.48149 3.44072 O
atom 6.78672 9.30875 2.75906 C
atom 6.45231 8.92700 1.80290 H
atom 6.58436 10.41927 3.51578 C
atom 6.03804 11.77731 3.93149 C
atom 6.33351 12.62002 3.29323 H
atom 4.95295 11.82131 4.09118 H
atom 6.89571 11.62049 5.25690 C
atom 7.68388 12.37394 5.38375 H
atom 6.30442 11.57128 6.18037 H
atom 7.35421 10.27931 4.70295 C
atom 8.00372 9.08748 4.63561 C
atom 8.68959 8.52104 5.25249 H
