lattice_vector 5.44244788 3.346e-05 -1e-08
lattice_vector -3.346e-05 -5.44253727 3e-08
lattice_vector 0.0 1e-08 -8.30108828
atom 0.98873 -1.73316 -4.15052 C
atom 0.49479 -2.22693 -2.93981 C
atom -0.49482 -3.21561 -2.93981 C
atom -0.98876 -3.70938 -4.15052 C
atom -0.49482 -3.21560 -5.36123 C
atom 0.49479 -2.22693 -5.36123 C
atom 1.76084 -0.96241 -4.15052 H
atom 0.88448 -1.83776 -1.99833 H
atom -0.88452 -3.60477 -1.99833 H
atom -1.76087 -4.48013 -4.15052 H
atom -0.88452 -3.60477 -6.30272 H
atom 0.88449 -1.83777 -6.30272 H
atom 1.73285 0.98849 -0.00002 C
atom 2.22676 0.49469 1.21069 C
atom 3.21569 -0.49466 1.21069 C
atom 3.70960 -0.98846 -0.00002 C
atom 3.21569 -0.49465 -1.21073 C
atom 2.22676 0.49469 -1.21073 C
atom 0.96186 1.76037 -0.00002 H
atom 1.83745 0.88428 2.15217 H
atom 3.60500 -0.88424 2.15217 H
atom 4.48058 -1.76033 -0.00002 H
atom 3.60500 -0.88424 -2.15220 H
atom 1.83745 0.88428 -2.15221 H
