# 
# This is the geometry file that corresponds to the current relaxation step.
# If you do not want this file to be written, set the "write_restart_geometry" flag to .false.
#  aims_uuid : EBC56769-2C3D-41CB-A799-356C42336CDA                                
# 
lattice_vector      5.44244788      0.00003346     -0.00000001
lattice_vector      0.00003346      5.44253727     -0.00000003
lattice_vector     -0.00000000     -0.00000001      8.30108828
atom       0.98876682      3.70938171      4.15056403 C
atom       0.49481870      3.21560864      5.36127376 C
atom      -0.49478478      2.22692875      5.36127378 C
atom      -0.98873143      1.73315344      4.15056404 C
atom      -0.49478945      2.22693274      2.93985640 C
atom       0.49482338      3.21560460      2.93985641 C
atom       1.76087193      4.48012516      4.15056455 H
atom       0.88451825      3.60477388      6.30276029 H
atom      -0.88448388      1.83776259      6.30276061 H
atom      -1.76083689      0.96241031      4.15056457 H
atom      -0.88448854      1.83776986      1.99836684 H
atom       0.88452291      3.60476656      1.99836714 H
atom       1.73284561      0.98849122     -0.00001945 C
atom       2.22675878      0.49468962      1.21069075 C
atom       3.21568840     -0.49465535      1.21069073 C
atom       3.70959933     -0.98845843     -0.00001946 C
atom       3.21569210     -0.49465316     -1.21072932 C
atom       2.22675507      0.49468744     -1.21072934 C
atom       0.96186223      1.76036611     -0.00001891 H
atom       1.83744914      0.88427526      2.15216739 H
atom       3.60499722     -0.88424137      2.15216709 H
atom       4.48058295     -1.76033309     -0.00001893 H
atom       3.60499505     -0.88424488     -2.15220472 H
atom       1.83745129      0.88427879     -2.15220503 H
