lattice_vector 17.40065 0.0 0.0
lattice_vector 0.0 5.362405 0.0
lattice_vector -0.621516 0.0 3.320787
atom 12.72960 7.09528 0.52889 O
atom 11.65532 6.27014 0.24927 C
atom 11.00180 6.62597 -0.53692 H
atom 11.72561 5.19526 1.07784 C
atom 11.34784 3.87090 1.72507 C
atom 11.37851 2.99640 1.06240 H
atom 10.39458 3.86589 2.26924 H
atom 12.63097 4.05088 2.64054 C
atom 13.40010 3.27907 2.50726 H
atom 12.41676 4.15243 3.71229 H
atom 12.87642 5.35591 1.89726 C
atom 13.47451 6.52411 1.54447 C
atom 14.34604 7.09204 1.84400 H
atom 4.04954 7.09528 2.79190 O
atom 5.12381 6.27014 3.07152 C
atom 5.77734 6.62597 3.85771 H
atom 5.05353 5.19526 2.24294 C
atom 5.43129 3.87090 1.59572 C
atom 5.40062 2.99640 2.25838 H
atom 6.38456 3.86589 1.05155 H
atom 4.14816 4.05088 0.68025 C
atom 3.37903 3.27907 0.81352 H
atom 4.36237 4.15243 -0.39150 H
atom 3.90271 5.35591 1.42353 C
atom 3.30462 6.52411 1.77632 C
atom 2.43310 7.09204 1.47679 H
