title geometry
lattice_vector 17.400650 0.000000 0.000000
lattice_vector 0.000000 5.362405 0.000000
lattice_vector -0.621516 0.000000 3.320787
-174.098467 -24.103430 172.052086 12.352548 5.497263 1.371631 /home/trose/genarris_mpi4py/merged_4_17_2019/tests/full_diverse_workflow/harris_single_molecule_prep_aims_dir/geometry
-5.901441 -155.896397 -7.947816 4.426587 5.497263 1.949147 /home/trose/genarris_mpi4py/merged_4_17_2019/tests/full_diverse_workflow/harris_single_molecule_prep_aims_dir/geometry
