title geometry
lattice_vector 7.751664 0.000000 0.000000
lattice_vector 0.000000 12.103886 0.000000
lattice_vector -3.411746 0.000000 2.738655
147.386489 -63.495949 -132.883459 3.287121 2.711708 2.569694 /home/trose/genarris_mpi4py/merged_4_17_2019/tests/full_diverse_workflow/harris_single_molecule_prep_aims_dir/geometry
-162.244168 -110.416185 10.895363 4.992994 9.392174 1.200366 /home/trose/genarris_mpi4py/merged_4_17_2019/tests/full_diverse_workflow/harris_single_molecule_prep_aims_dir/geometry
