lattice_vector 3.065723 0.0 0.0
lattice_vector 0.0 14.264791 0.0
lattice_vector -2.831538 0.0 5.03579
atom 0.00818 5.06184 1.76472 O
atom -0.81981 4.17694 1.09802 C
atom -1.09827 4.48147 0.09726 H
atom -1.06187 3.12564 1.92446 C
atom -1.62576 1.79835 2.41013 C
atom -1.28879 0.91211 1.85707 H
atom -2.71824 1.75670 2.50819 H
atom -0.84955 2.06380 3.76803 C
atom -0.06688 1.32952 3.99881 H
atom -1.49517 2.17795 4.64837 H
atom -0.36498 3.36292 3.14088 C
atom 0.28187 4.55205 3.02080 C
atom 0.92704 5.17022 3.63190 H
atom 0.00818 9.20295 1.76472 O
atom -0.81981 10.08785 1.09802 C
atom -1.09827 9.78332 0.09726 H
atom -1.06187 11.13915 1.92446 C
atom -1.62576 12.46644 2.41013 C
atom -1.28879 13.35268 1.85707 H
atom -2.71824 12.50809 2.50819 H
atom -0.84955 12.20099 3.76803 C
atom -0.06688 12.93527 3.99881 H
atom -1.49517 12.08684 4.64837 H
atom -0.36498 10.90187 3.14088 C
atom 0.28187 9.71274 3.02080 C
atom 0.92704 9.09457 3.63190 H
