lattice_vector 19.568241 0.0 0.0
lattice_vector 0.0 4.189973 0.0
lattice_vector 0.405468 0.0 3.137408
atom 10.84773 1.17697 0.45447 O
atom 11.48573 2.32783 0.88059 C
atom 10.85403 3.02636 1.41428 H
atom 12.78591 2.25468 0.49197 C
atom 14.24079 2.66103 0.30832 C
atom 14.82477 2.75428 1.23304 H
atom 14.40752 3.55657 -0.30411 H
atom 14.43752 1.28765 -0.46111 C
atom 15.13643 0.59033 0.01876 H
atom 14.71496 1.39192 -1.51799 H
atom 12.96248 1.02313 -0.19631 C
atom 11.76480 0.38103 -0.20733 C
atom 11.36778 -0.55242 -0.58531 H
atom 9.12598 1.17697 2.68294 O
atom 8.48798 2.32783 2.25681 C
atom 9.11968 3.02636 1.72312 H
atom 7.18780 2.25468 2.64544 C
atom 5.73292 2.66103 2.82909 C
atom 5.14894 2.75428 1.90436 H
atom 5.56619 3.55657 3.44152 H
atom 5.53618 1.28765 3.59852 C
atom 4.83728 0.59033 3.11865 H
atom 5.25875 1.39192 4.65540 H
atom 7.01123 1.02313 3.33372 C
atom 8.20891 0.38103 3.34474 C
atom 8.60593 -0.55242 3.72272 H
