lattice_vector 8.790337 0.0 0.0
lattice_vector 0.0 3.383981 0.0
lattice_vector 11.259937 0.0 8.807303
atom 7.96378 0.47383 0.34428 O
atom 8.69845 0.88703 1.44093 C
atom 9.76482 0.71791 1.36319 H
atom 7.83557 1.41358 2.34924 C
atom 7.34491 2.06459 3.63414 C
atom 7.69806 3.08915 3.80844 H
atom 7.50015 1.47914 4.54957 H
atom 5.88342 1.96463 3.02510 C
atom 5.39335 2.93125 2.85047 H
atom 5.19711 1.31912 3.58824 H
atom 6.52594 1.32531 1.80270 C
atom 6.62830 0.74753 0.57691 C
atom 5.95917 0.46215 -0.22474 H
atom 12.08649 2.16582 8.46303 O
atom 11.35183 2.57902 7.36637 C
atom 10.28545 2.40990 7.44412 H
atom 12.21471 3.10557 6.45807 C
atom 12.70536 3.75658 5.17316 C
atom 12.35221 4.78115 4.99887 H
atom 12.55013 3.17113 4.25773 H
atom 14.16686 3.65663 5.78221 C
atom 14.65692 4.62324 5.95684 H
atom 14.85316 3.01111 5.21906 H
atom 13.52434 3.01730 7.00461 C
atom 13.42197 2.43952 8.23040 C
atom 14.09111 2.15414 9.03204 H
