lattice_vector 4.362406 0.0 0.0
lattice_vector 0.0 12.553689 0.0
lattice_vector 2.3282 0.0 4.451222
atom 2.71347 4.90340 0.97038 O
atom 1.61451 4.24919 0.44368 C
atom 1.20134 4.70143 -0.44883 H
atom 1.35044 3.17312 1.23055 C
atom 0.65552 1.91800 1.73780 C
atom 0.69837 1.05098 1.06604 H
atom -0.38177 2.05382 2.07014 H
atom 1.72769 1.90092 2.90701 C
atom 2.38692 1.02320 2.91058 H
atom 1.30831 2.02977 3.91318 H
atom 2.31229 3.15705 2.27755 C
atom 3.13501 4.22381 2.09865 C
atom 3.99639 4.65397 2.59343 H
atom 2.71347 7.65029 0.97038 O
atom 1.61451 8.30450 0.44368 C
atom 1.20134 7.85226 -0.44883 H
atom 1.35044 9.38057 1.23055 C
atom 0.65552 10.63569 1.73780 C
atom 0.69837 11.50271 1.06604 H
atom -0.38177 10.49987 2.07014 H
atom 1.72769 10.65277 2.90701 C
atom 2.38692 11.53049 2.91058 H
atom 1.30831 10.52392 3.91318 H
atom 2.31229 9.39664 2.27755 C
atom 3.13501 8.32988 2.09865 C
atom 3.99639 7.89972 2.59343 H
