title geometry
lattice_vector 4.362406 0.000000 0.000000
lattice_vector 0.000000 12.553689 0.000000
lattice_vector 2.328200 0.000000 4.451222
173.792259 -11.913335 175.739091 1.937985 3.376943 1.659288 /home/trose/genarris_mpi4py/merged_4_17_2019/tests/full_diverse_workflow/harris_single_molecule_prep_aims_dir/geometry
-145.350802 -59.349710 36.049357 1.937985 9.176742 1.659288 /home/trose/genarris_mpi4py/merged_4_17_2019/tests/full_diverse_workflow/harris_single_molecule_prep_aims_dir/geometry
