lattice_vector 5.585973 0.0 0.0
lattice_vector 0.0 4.763705 0.0
lattice_vector 2.587373 0.0 10.678921
atom 7.28109 2.76799 2.12334 O
atom 6.36130 1.83452 1.68093 C
atom 6.20685 1.82140 0.60959 H
atom 5.88861 1.16535 2.76518 C
atom 5.07548 0.16932 3.57899 C
atom 5.29307 -0.88862 3.38346 H
atom 3.98778 0.31466 3.55352 H
atom 5.79229 0.76440 4.86311 C
atom 6.42112 0.04910 5.40893 H
atom 5.11773 1.25528 5.57644 H
atom 6.53217 1.69773 3.91584 C
atom 7.37870 2.67607 3.49977 C
atom 8.07706 3.36766 3.95343 H
atom 8.57477 1.99571 7.46280 O
atom 7.65499 2.92919 7.02039 C
atom 7.50053 2.94230 5.94905 H
atom 7.18229 3.59835 8.10464 C
atom 6.36917 4.59438 8.91846 C
atom 6.58676 5.65233 8.72292 H
atom 5.28147 4.44904 8.89299 H
atom 7.08598 3.99930 10.20257 C
atom 7.71481 4.71461 10.74839 H
atom 6.41141 3.50842 10.91590 H
atom 7.82586 3.06597 9.25531 C
atom 8.67238 2.08764 8.83924 C
atom 9.37074 1.39604 9.29289 H
