lattice_vector 8.178855 0.0 0.0
lattice_vector 0.0 7.588448 0.0
lattice_vector -0.381341 0.0 3.136558
atom 7.15404 7.40140 1.72464 O
atom 6.75520 6.30561 2.46847 C
atom 7.56467 5.69550 2.84837 H
atom 5.39704 6.30296 2.51571 C
atom 3.98656 5.84941 2.86267 C
atom 3.73426 5.86872 3.93075 H
atom 3.68744 4.87781 2.44869 H
atom 3.47303 7.10507 2.04017 C
atom 2.92291 7.84690 2.63351 H
atom 2.88018 6.85681 1.15038 H
atom 4.93693 7.42917 1.77979 C
atom 6.02795 8.08590 1.30521 C
atom 6.22718 8.96820 0.71051 H
atom 0.64347 3.60718 1.41192 O
atom 1.04231 2.51139 0.66809 C
atom 0.23284 1.90128 0.28819 H
atom 2.40047 2.50874 0.62085 C
atom 3.81095 2.05519 0.27389 C
atom 4.06325 2.07450 -0.79419 H
atom 4.11007 1.08359 0.68787 H
atom 4.32448 3.31084 1.09639 C
atom 4.87461 4.05268 0.50305 H
atom 4.91734 3.06258 1.98618 H
atom 2.86058 3.63494 1.35677 C
atom 1.76956 4.29168 1.83135 C
atom 1.57033 5.17398 2.42605 H
