lattice_vector 5.409632 0.0 0.0
lattice_vector 0.0 13.035457 0.0
lattice_vector -1.690464 0.0 2.561925
atom -0.19944 11.87649 1.03989 O
atom -1.00555 11.01325 0.32008 C
atom -1.31356 11.38193 -0.64997 H
atom -1.19264 9.89350 1.06708 C
atom -1.69710 8.51215 1.45811 C
atom -1.33713 7.68435 0.83359 H
atom -2.78525 8.42059 1.56947 H
atom -0.90672 8.70362 2.82029 C
atom -0.09283 7.98499 2.98200 H
atom -1.53996 8.72522 3.71660 H
atom -0.48303 10.06457 2.28725 C
atom 0.11621 11.28370 2.24882 C
atom 0.74869 11.87829 2.89554 H
atom -0.19944 1.15896 1.03989 O
atom -1.00555 2.02220 0.32008 C
atom -1.31356 1.65353 -0.64997 H
atom -1.19264 3.14195 1.06708 C
atom -1.69710 4.52331 1.45811 C
atom -1.33713 5.35110 0.83359 H
atom -2.78525 4.61486 1.56947 H
atom -0.90672 4.33184 2.82029 C
atom -0.09283 5.05047 2.98200 H
atom -1.53996 4.31024 3.71660 H
atom -0.48303 2.97089 2.28725 C
atom 0.11621 1.75175 2.24882 C
atom 0.74869 1.15717 2.89554 H
