lattice_vector 6.522995 0.0 0.0
lattice_vector 0.0 7.358453 0.0
lattice_vector 6.564772 0.0 6.383556
atom 11.72502 5.85949 3.72191 O
atom 10.88683 4.92962 3.13379 C
atom 10.52958 5.19935 2.14818 H
atom 10.74094 3.89105 3.99803 C
atom 10.26116 2.55695 4.55076 C
atom 10.59222 1.66988 3.99547 H
atom 9.18022 2.47898 4.72501 H
atom 11.11790 2.88312 5.84555 C
atom 11.94121 2.18298 6.03784 H
atom 10.53012 2.99592 6.76567 H
atom 11.50999 4.18279 5.15781 C
atom 12.10257 5.39080 4.96703 C
atom 12.76458 6.04634 5.51825 H
atom 1.36274 5.85949 2.66164 O
atom 2.20093 4.92962 3.24977 C
atom 2.55818 5.19935 4.23538 H
atom 2.34683 3.89105 2.38552 C
atom 2.82661 2.55695 1.83280 C
atom 2.49555 1.66988 2.38809 H
atom 3.90754 2.47898 1.65854 H
atom 1.96986 2.88312 0.53801 C
atom 1.14656 2.18298 0.34571 H
atom 2.55765 2.99592 -0.38211 H
atom 1.57778 4.18279 1.22574 C
atom 0.98520 5.39080 1.41652 C
atom 0.32319 6.04634 0.86531 H
