title geometry
lattice_vector 8.732864 0.000000 0.000000
lattice_vector 0.000000 8.760174 0.000000
lattice_vector 1.372348 0.000000 4.012102
-174.967273 -64.850024 169.708443 4.675139 6.922018 2.332229 /home/trose/genarris_mpi4py/merged_4_17_2019/tests/full_diverse_workflow/harris_single_molecule_prep_aims_dir/geometry
-155.674305 -104.728248 64.539100 3.988965 1.838152 0.326178 /home/trose/genarris_mpi4py/merged_4_17_2019/tests/full_diverse_workflow/harris_single_molecule_prep_aims_dir/geometry
