lattice_vector 19.311678 0.0 0.0
lattice_vector 0.0 3.420156 0.0
lattice_vector 2.837345 0.0 3.919716
atom 5.32033 0.03904 2.56208 O
atom 4.18492 0.76246 2.24484 C
atom 3.37681 0.67620 2.95990 H
atom 4.41360 1.40799 1.07103 C
atom 4.15654 2.29584 -0.13776 C
atom 4.00330 3.36013 0.08281 H
atom 3.35783 1.95814 -0.81072 H
atom 5.62362 1.92491 -0.61419 C
atom 6.31526 2.77548 -0.67041 H
atom 5.67007 1.37081 -1.56058 H
atom 5.72898 1.07668 0.64487 C
atom 6.26424 0.23875 1.57128 C
atom 7.19919 -0.28579 1.72140 H
atom 16.82870 0.03904 1.35764 O
atom 17.96410 0.76246 1.67488 C
atom 18.77221 0.67620 0.95982 H
atom 17.73542 1.40799 2.84869 C
atom 17.99248 2.29584 4.05748 C
atom 18.14572 3.36013 3.83690 H
atom 18.79119 1.95814 4.73043 H
atom 16.52540 1.92491 4.53391 C
atom 15.83376 2.77548 4.59012 H
atom 16.47895 1.37081 5.48030 H
atom 16.42004 1.07668 3.27485 C
atom 15.88479 0.23875 2.34844 C
atom 14.94983 -0.28579 2.19832 H
