title geometry
lattice_vector 3.373932 0.000000 0.000000
lattice_vector 0.000000 15.891118 0.000000
lattice_vector 5.850637 0.000000 5.754890
57.576542 -59.944003 2.167278 2.067500 5.227423 2.251322 /home/trose/genarris_mpi4py/merged_4_17_2019/tests/full_diverse_workflow/harris_single_molecule_prep_aims_dir/geometry
122.424213 -120.054467 -177.831702 7.157070 13.172982 3.503558 /home/trose/genarris_mpi4py/merged_4_17_2019/tests/full_diverse_workflow/harris_single_molecule_prep_aims_dir/geometry
