lattice_vector 5.736705 0.0 0.0
lattice_vector 0.0 12.390473 0.0
lattice_vector 1.552403 0.0 3.185727
atom 7.15146 8.87420 -0.97654 O
atom 6.59227 10.03100 -0.46446 C
atom 6.78106 10.92341 -1.04735 H
atom 5.93257 9.70722 0.67870 C
atom 5.09925 9.88535 1.93940 C
atom 4.06372 10.21168 1.77808 H
atom 5.54876 10.51536 2.71778 H
atom 5.27148 8.32522 2.17012 C
atom 4.33525 7.75268 2.14406 H
atom 5.82288 8.05627 3.08032 H
atom 6.08573 8.30873 0.88461 C
atom 6.83437 7.82034 -0.13905 C
atom 7.22536 6.85963 -0.44884 H
atom 7.15146 3.51627 -0.97654 O
atom 6.59227 2.35947 -0.46446 C
atom 6.78106 1.46706 -1.04735 H
atom 5.93257 2.68325 0.67870 C
atom 5.09925 2.50513 1.93940 C
atom 4.06372 2.17879 1.77808 H
atom 5.54876 1.87511 2.71778 H
atom 5.27148 4.06525 2.17012 C
atom 4.33525 4.63779 2.14406 H
atom 5.82288 4.33421 3.08032 H
atom 6.08573 4.08174 0.88461 C
atom 6.83437 4.57013 -0.13905 C
atom 7.22536 5.53084 -0.44884 H
