lattice_vector 7.446395 0.0 0.0
lattice_vector 0.0 7.942889 0.0
lattice_vector -6.22494 0.0 4.777494
atom 2.69955 7.63869 0.72822 O
atom 1.56211 7.01161 0.25272 C
atom 1.01614 7.56899 -0.49764 H
atom 1.44444 5.81718 0.89017 C
atom 0.86825 4.46430 1.28162 C
atom 0.84884 3.71112 0.48338 H
atom -0.11819 4.49208 1.76227 H
atom 2.08950 4.33112 2.28545 C
atom 2.77265 3.50002 2.06728 H
atom 1.80680 4.28498 3.34507 H
atom 2.53980 5.69725 1.78874 C
atom 3.29365 6.82206 1.67305 C
atom 4.19917 7.21976 2.11316 H
atom -0.41292 0.30420 3.11697 O
atom -1.55036 0.93128 2.64147 C
atom -2.09633 0.37390 1.89110 H
atom -1.66803 2.12571 3.27891 C
atom -2.24422 3.47859 3.67036 C
atom -2.26363 4.23177 2.87213 H
atom -3.23066 3.45081 4.15102 H
atom -1.02297 3.61177 4.67420 C
atom -0.33982 4.44286 4.45603 H
atom -1.30567 3.65791 5.73382 H
atom -0.57267 2.24564 4.17748 C
atom 0.18118 1.12083 4.06180 C
atom 1.08670 0.72313 4.50191 H
