lattice_vector 6.956332 0.0 0.0
lattice_vector 0.0 4.68765 0.0
lattice_vector 6.103162 0.0 6.477468
atom 4.48494 2.16250 1.39122 O
atom 4.14678 0.90719 1.86340 C
atom 3.59297 0.29311 1.16482 H
atom 4.62708 0.79219 3.12946 C
atom 4.92724 0.17203 4.48624 C
atom 5.58330 -0.70779 4.46791 H
atom 4.05034 -0.05664 5.10561 H
atom 5.65742 1.53260 4.85037 C
atom 6.73366 1.43675 5.04410 H
atom 5.19941 2.08946 5.67800 H
atom 5.28275 2.01106 3.45519 C
atom 5.18326 2.83389 2.37820 C
atom 5.49883 3.83447 2.11160 H
atom 8.57455 2.16250 5.08625 O
atom 8.91272 0.90719 4.61407 C
atom 9.46652 0.29311 5.31264 H
atom 8.43241 0.79219 3.34801 C
atom 8.13225 0.17203 1.99123 C
atom 7.47619 -0.70779 2.00956 H
atom 9.00915 -0.05664 1.37186 H
atom 7.40207 1.53260 1.62710 C
atom 6.32584 1.43675 1.43336 H
atom 7.86009 2.08946 0.79947 H
atom 7.77674 2.01106 3.02228 C
atom 7.87623 2.83389 4.09927 C
atom 7.56067 3.83447 4.36587 H
