lattice_vector 5.562422 0.0 0.0
lattice_vector 0.0 8.940886 0.0
lattice_vector -7.276564 0.0 4.365757
atom -5.07522 7.93902 2.34495 O
atom -5.24956 6.61954 2.72139 C
atom -6.16350 6.16229 2.36442 H
atom -4.17512 6.25107 3.46748 C
atom -3.26151 5.37175 4.30869 C
atom -2.83270 4.50472 3.78983 H
atom -3.67944 5.03634 5.26666 H
atom -2.29363 6.62453 4.41185 C
atom -1.30636 6.47893 3.95456 H
atom -2.15606 7.01285 5.42926 H
atom -3.30703 7.37345 3.55865 C
atom -3.87735 8.39375 2.86539 C
atom -3.64040 9.42325 2.62915 H
atom -1.43693 1.00187 0.16207 O
atom -1.61127 2.32134 0.53851 C
atom -2.52522 2.77859 0.18155 H
atom -0.53684 2.68982 1.28461 C
atom 0.37677 3.56913 2.12581 C
atom 0.80558 4.43616 1.60695 H
atom -0.04116 3.90455 3.08378 H
atom 1.34466 2.31635 2.22897 C
atom 2.33192 2.46196 1.77168 H
atom 1.48223 1.92804 3.24638 H
atom 0.33125 1.56743 1.37577 C
atom -0.23906 0.54714 0.68252 C
atom -0.00212 -0.48236 0.44627 H
