lattice_vector 6.119139 0.0 0.0
lattice_vector 0.0 11.092394 0.0
lattice_vector 3.013171 0.0 4.272666
atom 5.77469 1.05899 3.53873 O
atom 5.31024 2.25450 4.05657 C
atom 4.91113 2.19002 5.06074 H
atom 5.49421 3.21822 3.11624 C
atom 5.47041 4.59325 2.46490 C
atom 6.09299 5.35589 2.95029 H
atom 4.47258 5.01503 2.28796 H
atom 6.13355 3.90896 1.19648 C
atom 7.13720 4.27863 0.94942 H
atom 5.51641 3.93397 0.28910 H
atom 6.08989 2.60514 1.98005 C
atom 6.25192 1.28533 2.26062 C
atom 6.64258 0.40912 1.75916 H
atom 4.26811 10.03340 1.40239 O
atom 3.80366 8.83790 1.92024 C
atom 3.40454 8.90238 2.92441 H
atom 3.98763 7.87418 0.97990 C
atom 3.96382 6.49914 0.32857 C
atom 4.58641 5.73650 0.81396 H
atom 2.96599 6.07737 0.15163 H
atom 4.62697 7.18343 -0.93985 C
atom 5.63061 6.81376 -1.18691 H
atom 4.00982 7.15843 -1.84723 H
atom 4.58331 8.48726 -0.15629 C
atom 4.74534 9.80706 0.12428 C
atom 5.13599 10.68328 -0.37717 H
