lattice_vector 3.947593 0.0 0.0
lattice_vector 0.0 13.428618 0.0
lattice_vector 3.878816 0.0 4.041622
atom -0.22424 2.63833 2.15363 O
atom -0.08260 1.46271 1.43881 C
atom -0.74913 0.66475 1.74014 H
atom 0.89822 1.64845 0.51667 C
atom 1.85815 1.33555 -0.62182 C
atom 1.38775 1.12472 -1.59089 H
atom 2.59911 0.55297 -0.41348 H
atom 2.39862 2.81820 -0.45892 C
atom 2.24184 3.46122 -1.33468 H
atom 3.45059 2.88991 -0.15387 H
atom 1.38153 2.97773 0.66174 C
atom 0.68129 3.56400 1.66813 C
atom 0.65523 4.52748 2.16092 H
atom 8.05065 9.35264 1.88800 O
atom 7.90901 8.17702 2.60282 C
atom 8.57554 7.37907 2.30148 H
atom 6.92819 8.36276 3.52495 C
atom 5.96826 8.04986 4.66344 C
atom 6.43866 7.83903 5.63251 H
atom 5.22730 7.26728 4.45510 H
atom 5.42778 9.53251 4.50055 C
atom 5.58457 10.17552 5.37631 H
atom 4.37581 9.60422 4.19550 H
atom 6.44488 9.69204 3.37988 C
atom 7.14512 10.27830 2.37349 C
atom 7.17117 11.24179 1.88070 H
