lattice_vector 13.075994 0.0 0.0
lattice_vector 0.0 3.293785 0.0
lattice_vector 4.118012 0.0 5.990831
atom 11.52106 2.80325 -0.82056 O
atom 10.47155 2.12613 -1.41483 C
atom 10.59399 1.93782 -2.47376 H
atom 9.53909 1.87584 -0.45842 C
atom 8.25131 1.36999 0.17503 C
atom 8.12201 0.27998 0.17472 H
atom 7.32821 1.83321 -0.19670 H
atom 8.78886 1.97068 1.54145 C
atom 8.96724 1.22741 2.32932 H
atom 8.17681 2.78223 1.95574 H
atom 10.02160 2.41293 0.76647 C
atom 11.23435 2.97508 0.52139 C
atom 11.99587 3.49781 1.08589 H
atom 5.67295 1.15635 6.81139 O
atom 6.72246 0.47923 7.40566 C
atom 6.60001 0.29093 8.46459 H
atom 7.65492 0.22895 6.44925 C
atom 8.94270 -0.27690 5.81580 C
atom 9.07199 -1.36691 5.81611 H
atom 9.86579 0.18632 6.18753 H
atom 8.40515 0.32379 4.44938 C
atom 8.22677 -0.41948 3.66151 H
atom 9.01720 1.13533 4.03509 H
atom 7.17241 0.76603 5.22436 C
atom 5.95965 1.32819 5.46945 C
atom 5.19814 1.85092 4.90494 H
