lattice_vector 15.709242 0.0 0.0
lattice_vector 0.0 4.386982 0.0
lattice_vector 7.35287 0.0 4.40703
atom 14.74950 3.39641 3.73288 O
atom 15.88150 2.76991 4.22196 C
atom 16.05243 2.90379 5.28246 H
atom 16.48858 2.13297 3.18630 C
atom 17.51176 1.29288 2.43605 C
atom 17.57002 0.23936 2.73858 H
atom 18.52843 1.70533 2.40246 H
atom 16.64689 1.55870 1.13289 C
atom 16.20858 0.65841 0.68305 H
atom 17.16447 2.12696 0.34929 H
atom 15.71259 2.37003 2.01870 C
atom 14.65478 3.14462 2.37635 C
atom 13.79761 3.59187 1.88949 H
atom 11.07307 0.99057 1.52937 O
atom 12.20506 1.61707 2.01845 C
atom 12.37600 1.48320 3.07895 H
atom 12.81214 2.25401 0.98278 C
atom 13.83533 3.09410 0.23253 C
atom 13.89359 4.14762 0.53507 H
atom 14.85200 2.68165 0.19895 H
atom 12.97045 2.82828 -1.07063 C
atom 12.53214 3.72857 -1.52046 H
atom 13.48803 2.26002 -1.85423 H
atom 12.03615 2.01695 -0.18481 C
atom 10.97835 1.24236 0.17284 C
atom 10.12117 0.79511 -0.31403 H
