lattice_vector 5.693668 0.0 0.0
lattice_vector 0.0 12.441222 0.0
lattice_vector -2.646973 0.0 3.544837
atom 0.75483 4.76170 3.54094 O
atom 0.57497 4.64112 2.17484 C
atom -0.13055 5.34122 1.74601 H
atom 1.37122 3.63159 1.73474 C
atom 2.02663 2.65401 0.77022 C
atom 2.67132 3.10643 0.00567 H
atom 1.34625 1.94499 0.28111 H
atom 2.80124 2.06887 2.02500 C
atom 3.89231 2.18192 1.98274 H
atom 2.56497 1.02317 2.26067 H
atom 2.06651 3.10820 2.85913 C
atom 1.67407 3.81387 3.95224 C
atom 1.89050 3.82039 5.01287 H
atom 0.75483 7.67952 3.54094 O
atom 0.57497 7.80011 2.17484 C
atom -0.13055 7.10000 1.74601 H
atom 1.37122 8.80963 1.73474 C
atom 2.02663 9.78721 0.77022 C
atom 2.67132 9.33480 0.00567 H
atom 1.34625 10.49623 0.28111 H
atom 2.80124 10.37236 2.02500 C
atom 3.89231 10.25930 1.98274 H
atom 2.56497 11.41805 2.26067 H
atom 2.06651 9.33302 2.85913 C
atom 1.67407 8.62735 3.95224 C
atom 1.89050 8.62083 5.01287 H
