title geometry
lattice_vector 3.947593 0.000000 0.000000
lattice_vector 0.000000 13.428618 0.000000
lattice_vector 3.878816 0.000000 4.041622
-140.865208 -81.923722 -103.342304 0.974681 2.352276 0.780011 /home/trose/genarris_mpi4py/merged_4_17_2019/tests/full_diverse_workflow/harris_single_molecule_prep_aims_dir/geometry
-39.134723 -98.076467 76.657739 6.851729 9.066585 3.261601 /home/trose/genarris_mpi4py/merged_4_17_2019/tests/full_diverse_workflow/harris_single_molecule_prep_aims_dir/geometry
