lattice_vector 11.757418 0.0 0.0
lattice_vector 0.0 3.690236 0.0
lattice_vector -1.050688 0.0 4.60473
atom 2.79236 3.09703 3.87460 O
atom 3.81931 2.40462 3.25894 C
atom 4.75213 2.39252 3.80803 H
atom 3.34688 1.91127 2.08410 C
atom 3.33549 1.17596 0.75192 C
atom 3.49018 0.09086 0.81080 H
atom 4.00181 1.58434 -0.01887 H
atom 1.81843 1.62026 0.61764 C
atom 1.09899 0.79142 0.59685 H
atom 1.61109 2.28716 -0.22917 H
atom 1.98683 2.30826 1.96453 C
atom 1.66942 3.03213 3.07003 C
atom 0.79992 3.54536 3.46039 H
atom 7.91437 3.09703 0.73013 O
atom 6.88741 2.40462 1.34579 C
atom 5.95460 2.39252 0.79670 H
atom 7.35985 1.91127 2.52063 C
atom 7.37124 1.17596 3.85281 C
atom 7.21656 0.09086 3.79393 H
atom 6.70492 1.58434 4.62360 H
atom 8.88830 1.62026 3.98709 C
atom 9.60774 0.79142 4.00788 H
atom 9.09564 2.28716 4.83390 H
atom 8.71990 2.30826 2.64019 C
atom 9.03731 3.03213 1.53470 C
atom 9.90681 3.54536 1.14434 H
