title geometry
lattice_vector 11.757418 0.000000 0.000000
lattice_vector 0.000000 3.690236 0.000000
lattice_vector -1.050688 0.000000 4.604730
-31.860705 -121.859639 -42.823739 2.682429 2.230575 2.248799 /home/trose/genarris_mpi4py/merged_4_17_2019/tests/full_diverse_workflow/harris_single_molecule_prep_aims_dir/geometry
-148.139282 -58.140411 137.176221 8.024302 2.230575 2.355922 /home/trose/genarris_mpi4py/merged_4_17_2019/tests/full_diverse_workflow/harris_single_molecule_prep_aims_dir/geometry
