lattice_vector 5.826009 0.0 0.0
lattice_vector 0.0 5.567031 0.0
lattice_vector -2.842732 0.0 6.580577
atom 3.61527 7.57252 2.53462 O
atom 2.78358 6.74353 1.80374 C
atom 2.49881 7.12758 0.83255 H
atom 2.54711 5.62872 2.54409 C
atom 1.98683 4.26603 2.92446 C
atom 2.32079 3.42764 2.29963 H
atom 0.89500 4.21555 3.02553 H
atom 2.77130 4.42174 4.29459 C
atom 3.55572 3.67197 4.46055 H
atom 2.13108 4.46385 5.18520 H
atom 3.25139 5.76770 3.77140 C
atom 3.89695 6.96326 3.74375 C
atom 4.54559 7.53070 4.39880 H
atom -0.63199 4.78900 4.04596 O
atom 0.19970 3.96002 4.77683 C
atom 0.48447 4.34407 5.74802 H
atom 0.43617 2.84521 4.03649 C
atom 0.99644 1.48251 3.65611 C
atom 0.66249 0.64412 4.28095 H
atom 2.08828 1.43204 3.55504 H
atom 0.21197 1.63823 2.28598 C
atom -0.57244 0.88846 2.12003 H
atom 0.85220 1.68033 1.39537 H
atom -0.26812 2.98419 2.80918 C
atom -0.91367 4.17974 2.83683 C
atom -1.56231 4.74719 2.18178 H
