lattice_vector 7.915675 0.0 0.0
lattice_vector 0.0 7.073934 0.0
lattice_vector -2.23302 0.0 4.089101
atom 5.76645 8.39924 -0.57183 O
atom 4.90764 7.31508 -0.55901 C
atom 4.37100 7.14971 -1.48446 H
atom 4.98259 6.73548 0.66790 C
atom 4.69718 5.75962 1.80005 C
atom 4.99048 4.71894 1.61088 H
atom 3.66935 5.77032 2.18518 H
atom 5.73572 6.59169 2.66376 C
atom 6.62637 6.03017 2.97430 H
atom 5.30557 7.08431 3.54531 H
atom 5.91448 7.48038 1.44142 C
atom 6.38077 8.49257 0.66366 C
atom 7.07921 9.31356 0.76348 H
atom -0.08379 8.39924 4.66093 O
atom 0.77502 7.31508 4.64811 C
atom 1.31166 7.14971 5.57356 H
atom 0.70006 6.73548 3.42121 C
atom 0.98548 5.75962 2.28906 C
atom 0.69217 4.71894 2.47822 H
atom 2.01330 5.77032 1.90392 H
atom -0.05306 6.59169 1.42534 C
atom -0.94371 6.03017 1.11480 H
atom 0.37709 7.08431 0.54379 H
atom -0.23183 7.48038 2.64768 C
atom -0.69811 8.49257 3.42544 C
atom -1.39656 9.31356 3.32562 H
