lattice_vector 16.833094 0.0 0.0
lattice_vector 0.0 3.224636 0.0
lattice_vector 2.274287 0.0 4.144956
atom 15.21302 2.31080 1.58236 O
atom 14.88606 1.82781 2.83652 C
atom 15.72823 1.49082 3.42726 H
atom 13.53772 1.91641 2.98138 C
atom 12.16562 1.79743 3.62845 C
atom 12.01073 2.41484 4.52268 H
atom 11.83307 0.77427 3.84624 H
atom 11.57638 2.41362 2.29054 C
atom 11.07999 3.38490 2.41387 H
atom 10.90631 1.74423 1.73578 H
atom 13.00987 2.47004 1.78284 C
atom 14.05173 2.70302 0.94194 C
atom 14.19396 3.10004 -0.05503 H
atom 3.89436 2.31080 2.56260 O
atom 4.22132 1.82781 1.30843 C
atom 3.37915 1.49082 0.71769 H
atom 5.56966 1.91641 1.16358 C
atom 6.94176 1.79743 0.51651 C
atom 7.09665 2.41484 -0.37772 H
atom 7.27431 0.77427 0.29872 H
atom 7.53100 2.41362 1.85442 C
atom 8.02739 3.38490 1.73108 H
atom 8.20107 1.74423 2.40917 H
atom 6.09751 2.47004 2.36212 C
atom 5.05565 2.70302 3.20301 C
atom 4.91341 3.10004 4.19999 H
