lattice_vector 10.09315858 0.11009813 0.1813671
lattice_vector -0.02889769 8.35393322 0.06561289
lattice_vector -2.83187484 -0.08230907 6.54004209
atom 1.84432 -1.55417 1.92285 C
atom 1.90600 -2.72208 1.88528 N
atom 1.72747 -0.15810 1.97985 C
atom 0.14510 0.58486 2.04621 S
atom 0.84874 2.14925 2.15146 C
atom 2.23634 2.10855 2.14340 C
atom 2.74060 0.78435 2.03837 C
atom 3.07300 3.16308 2.22242 O
atom 0.20860 3.02067 2.24268 H
atom 3.79567 0.52734 1.99569 H
atom 2.55726 4.01611 2.18632 H
atom 6.76763 2.67006 1.53269 C
atom 6.71734 1.50113 1.55663 N
atom 6.87180 4.06830 1.49205 C
atom 8.44648 4.82623 1.42128 S
atom 7.72863 6.38646 1.35598 C
atom 6.34197 6.33294 1.37621 C
atom 5.84972 5.00196 1.45885 C
atom 5.49937 7.38418 1.32643 O
atom 8.35882 7.26673 1.28095 H
atom 4.79774 4.73418 1.50804 H
atom 6.00884 8.23933 1.37592 H
atom 5.38806 9.93590 4.86413 C
atom 5.32639 11.10381 4.90176 N
atom 5.50491 8.53983 4.80719 C
atom 7.08729 7.79687 4.74086 S
atom 6.38365 6.23248 4.63560 C
atom 4.99605 6.27318 4.64363 C
atom 4.49179 7.59738 4.74865 C
atom 4.15939 5.21865 4.56458 O
atom 7.02380 5.36106 4.54440 H
atom 3.43671 7.85438 4.79130 H
atom 4.67513 4.36562 4.60068 H
atom 0.46475 5.71166 5.25427 C
atom 0.51504 6.88058 5.23040 N
atom 0.36058 4.31342 5.29496 C
atom -1.21410 3.55548 5.36577 S
atom -0.49625 1.99526 5.43109 C
atom 0.89041 2.04878 5.41081 C
atom 1.38267 3.37975 5.32814 C
atom 1.73302 0.99754 5.46058 O
atom -1.12643 1.11500 5.50615 H
atom 2.43464 3.64754 5.27892 H
atom 1.22355 0.14239 5.41109 H
