lattice_vector 4.564107 0.0 0.0
lattice_vector 0.0 15.714668 0.0
lattice_vector -4.766376 0.0 3.662326
atom 4.32536 12.69495 -0.42166 O
atom 3.32367 12.59326 0.52670 C
atom 2.98372 13.53795 0.93143 H
atom 3.03435 11.27566 0.69115 C
atom 2.35901 10.02433 1.23304 C
atom 1.28745 9.93385 1.01304 H
atom 2.51597 9.82778 2.30149 H
atom 3.30423 9.19839 0.26285 C
atom 2.77756 8.63014 -0.51478 H
atom 4.00800 8.52777 0.77258 H
atom 3.88049 10.53559 -0.17947 C
atom 4.66117 11.42347 -0.84958 C
atom 5.44181 11.38703 -1.59864 H
atom 4.32536 3.01972 -0.42166 O
atom 3.32367 3.12140 0.52670 C
atom 2.98372 2.17671 0.93143 H
atom 3.03435 4.43901 0.69115 C
atom 2.35901 5.69033 1.23304 C
atom 1.28745 5.78082 1.01304 H
atom 2.51597 5.88689 2.30149 H
atom 3.30423 6.51628 0.26285 C
atom 2.77756 7.08453 -0.51478 H
atom 4.00800 7.18690 0.77258 H
atom 3.88049 5.17908 -0.17947 C
atom 4.66117 4.29120 -0.84958 C
atom 5.44181 4.32763 -1.59864 H
