lattice_vector 6.226932 0.0 0.0
lattice_vector 0.0 15.23846 0.0
lattice_vector 4.290473 0.0 2.563419
atom 5.91999 5.61004 0.95848 O
atom 5.26311 4.84615 0.01080 C
atom 4.91977 5.39511 -0.85670 H
atom 5.23223 3.56230 0.45534 C
atom 4.93229 2.07060 0.47529 C
atom 5.42154 1.48060 -0.31044 H
atom 3.86814 1.80299 0.50419 H
atom 5.66286 2.03004 1.88295 C
atom 6.57174 1.41502 1.90926 H
atom 5.01874 1.74169 2.72367 H
atom 5.88831 3.52577 1.71624 C
atom 6.30026 4.78846 2.00391 C
atom 6.82659 5.28834 2.80699 H
atom 5.91999 9.62842 0.95848 O
atom 5.26311 10.39231 0.01080 C
atom 4.91977 9.84335 -0.85670 H
atom 5.23223 11.67616 0.45534 C
atom 4.93229 13.16786 0.47529 C
atom 5.42154 13.75786 -0.31044 H
atom 3.86814 13.43547 0.50419 H
atom 5.66286 13.20842 1.88295 C
atom 6.57174 13.82344 1.90926 H
atom 5.01874 13.49677 2.72367 H
atom 5.88831 11.71269 1.71624 C
atom 6.30026 10.45000 2.00391 C
atom 6.82659 9.95012 2.80699 H
