title geometry
lattice_vector 10.159426 0.000000 0.000000
lattice_vector 0.000000 3.577220 0.000000
lattice_vector 7.392120 0.000000 5.734916
-141.954373 -76.677932 133.725276 15.267294 1.584669 5.106472 /home/trose/genarris_mpi4py/merged_4_17_2019/tests/full_diverse_workflow/harris_single_molecule_prep_aims_dir/geometry
-38.045686 -103.322258 -46.274743 2.284253 1.584669 0.628434 /home/trose/genarris_mpi4py/merged_4_17_2019/tests/full_diverse_workflow/harris_single_molecule_prep_aims_dir/geometry
