lattice_vector 7.119184 0.0 0.0
lattice_vector 0.0 5.816447 0.0
lattice_vector -6.807656 0.0 6.026429
atom 0.23780 1.85354 5.91781 O
atom -0.25065 2.78344 6.81770 C
atom -0.11274 2.52344 7.85942 H
atom -0.79088 3.80925 6.10868 C
atom -1.48922 5.13163 5.82734 C
atom -0.95297 6.02884 6.16243 H
atom -2.53082 5.19757 6.16733 H
atom -1.31656 4.79625 4.28636 C
atom -0.68279 5.50120 3.73284 H
atom -2.25898 4.66612 3.73888 H
atom -0.63476 3.50929 4.72763 C
atom -0.00378 2.30926 4.63465 C
atom 0.34116 1.65254 3.84626 H
atom 3.64163 3.96291 2.90459 O
atom 3.15318 3.03300 3.80449 C
atom 3.29109 3.29301 4.84620 H
atom 2.61295 2.00720 3.09546 C
atom 1.91460 0.68482 2.81412 C
atom 2.45085 -0.21239 3.14922 H
atom 0.87301 0.61887 3.15412 H
atom 2.08727 1.02020 1.27315 C
atom 2.72104 0.31525 0.71962 H
atom 1.14485 1.15033 0.72567 H
atom 2.76907 2.30716 1.71442 C
atom 3.40005 3.50719 1.62143 C
atom 3.74499 4.16390 0.83304 H
