title geometry
lattice_vector 7.119184 0.000000 0.000000
lattice_vector 0.000000 5.816447 0.000000
lattice_vector -6.807656 0.000000 6.026429
16.307310 -154.846978 -164.052331 -0.598111 3.439314 5.478936 /home/trose/genarris_mpi4py/merged_4_17_2019/tests/full_diverse_workflow/harris_single_molecule_prep_aims_dir/geometry
140.686864 -155.008992 -164.130781 2.805717 2.377129 2.465722 /home/trose/genarris_mpi4py/merged_4_17_2019/tests/full_diverse_workflow/harris_single_molecule_prep_aims_dir/geometry
