lattice_vector 6.048047 0.0 0.0
lattice_vector 0.0 6.706266 0.0
lattice_vector -0.112791 0.0 5.56401
atom -0.59146 1.57130 -0.11636 O
atom 0.24050 2.67045 -0.22960 C
atom -0.19654 3.52052 -0.73771 H
atom 1.42697 2.36016 0.35594 C
atom 2.85836 2.52588 0.84501 C
atom 3.00656 3.28868 1.62025 H
atom 3.61187 2.67171 0.06027 H
atom 2.75220 1.04049 1.39206 C
atom 2.84145 0.94684 2.48214 H
atom 3.44285 0.32961 0.92036 H
atom 1.33124 1.02944 0.84749 C
atom 0.08908 0.56694 0.54746 C
atom -0.47441 -0.34607 0.69133 H
atom -0.64786 5.13496 2.66564 O
atom 0.18410 4.03581 2.55241 C
atom -0.25294 3.18575 2.04430 H
atom 1.37057 4.34610 3.13794 C
atom 2.80196 4.18039 3.62701 C
atom 2.95016 3.41759 4.40226 H
atom 3.55548 4.03456 2.84227 H
atom 2.69581 5.66577 4.17407 C
atom 2.78505 5.75943 5.26414 H
atom 3.38646 6.37665 3.70237 H
atom 1.27484 5.67683 3.62950 C
atom 0.03269 6.13933 3.32946 C
atom -0.53080 7.05234 3.47334 H
