title geometry
lattice_vector 6.048047 0.000000 0.000000
lattice_vector 0.000000 6.706266 0.000000
lattice_vector -0.112791 0.000000 5.564010
111.258303 -87.959960 40.676072 1.139880 1.679493 0.513561 /home/trose/genarris_mpi4py/merged_4_17_2019/tests/full_diverse_workflow/harris_single_molecule_prep_aims_dir/geometry
-97.104890 -40.385376 -170.294194 1.083485 5.026770 3.295566 /home/trose/genarris_mpi4py/merged_4_17_2019/tests/full_diverse_workflow/harris_single_molecule_prep_aims_dir/geometry
