lattice_vector 9.791256 0.0 0.0
lattice_vector 0.0 9.741346 0.0
lattice_vector -4.642656 0.0 2.989498
atom 3.37528 5.03620 1.31071 O
atom 2.52497 4.23443 0.57095 C
atom 2.84729 3.20645 0.46530 H
atom 1.47566 4.99743 0.16643 C
atom 0.16447 5.36912 -0.51043 C
atom -0.72812 4.86440 -0.11880 H
atom 0.15951 5.29199 -1.60537 H
atom 0.39167 6.83653 0.04813 C
atom -0.37095 7.17845 0.75981 H
atom 0.52050 7.60474 -0.72524 H
atom 1.67863 6.31217 0.66831 C
atom 2.84583 6.31266 1.36438 C
atom 3.43633 7.02685 1.92389 H
atom 1.77332 0.16553 1.67878 O
atom 2.62363 -0.63624 2.41854 C
atom 2.30131 -1.66422 2.52420 H
atom 3.67294 0.12675 2.82307 C
atom 4.98413 0.49845 3.49992 C
atom 5.87672 -0.00627 3.10830 H
atom 4.98909 0.42132 4.59486 H
atom 4.75693 1.96586 2.94137 C
atom 5.51956 2.30778 2.22969 H
atom 4.62810 2.73407 3.71474 H
atom 3.46997 1.44150 2.32119 C
atom 2.30277 1.44199 1.62512 C
atom 1.71227 2.15618 1.06561 H
