lattice_vector 4.693614 0.0 0.0
lattice_vector 0.0 14.384246 0.0
lattice_vector -0.242675 0.0 2.750451
atom 0.11183 12.37185 3.02789 O
atom 1.42440 12.27739 2.60205 C
atom 1.99562 13.19323 2.68416 H
atom 1.63784 11.00294 2.18126 C
atom 2.37206 9.79490 1.61816 C
atom 3.20846 9.42594 2.22574 H
atom 2.70872 9.88937 0.57768 H
atom 1.01634 8.99223 1.80428 C
atom 1.07181 8.15941 2.51726 H
atom 0.57021 8.62651 0.87044 H
atom 0.42318 10.28326 2.34948 C
atom -0.49567 11.13980 2.86805 C
atom -1.53353 11.10139 3.17331 H
atom 0.11183 2.01239 3.02789 O
atom 1.42440 2.10685 2.60205 C
atom 1.99562 1.19102 2.68416 H
atom 1.63784 3.38130 2.18126 C
atom 2.37206 4.58935 1.61816 C
atom 3.20846 4.95830 2.22574 H
atom 2.70872 4.49488 0.57768 H
atom 1.01634 5.39201 1.80428 C
atom 1.07181 6.22484 2.51726 H
atom 0.57021 5.75773 0.87044 H
atom 0.42318 4.10098 2.34948 C
atom -0.49567 3.24444 2.86805 C
atom -1.53353 3.28285 3.17331 H
