lattice_vector 15.704573 0.0 0.0
lattice_vector 0.0 3.666464 0.0
lattice_vector -1.586814 0.0 3.188236
atom 4.16874 1.75721 3.66106 O
atom 2.85453 2.16244 3.51357 C
atom 2.53242 2.92294 4.21335 H
atom 2.31233 1.45999 2.48429 C
atom 1.27441 0.98004 1.48035 C
atom 0.92278 1.73678 0.76723 H
atom 0.40237 0.46999 1.90961 H
atom 2.39556 0.01044 0.91483 C
atom 2.68852 0.20677 -0.12471 H
atom 2.17070 -1.05869 1.02084 H
atom 3.31762 0.59211 1.97657 C
atom 4.44371 0.79061 2.71100 C
atom 5.45343 0.40126 2.73727 H
atom 9.94902 1.75721 -0.47283 O
atom 11.26323 2.16244 -0.32534 C
atom 11.58534 2.92294 -1.02511 H
atom 11.80543 1.45999 0.70394 C
atom 12.84335 0.98004 1.70789 C
atom 13.19498 1.73678 2.42100 H
atom 13.71538 0.46999 1.27863 H
atom 11.72220 0.01044 2.27341 C
atom 11.42924 0.20677 3.31294 H
atom 11.94706 -1.05869 2.16740 H
atom 10.80013 0.59211 1.21167 C
atom 9.67405 0.79061 0.47724 C
atom 8.66433 0.40126 0.45097 H
