title geometry
lattice_vector 5.967302 0.000000 0.000000
lattice_vector 0.000000 11.126525 0.000000
lattice_vector 4.400398 0.000000 3.393997
118.676709 -1.786293 -109.369647 6.265420 6.804949 1.997195 /home/trose/genarris_mpi4py/merged_4_17_2019/tests/full_diverse_workflow/harris_single_molecule_prep_aims_dir/geometry
61.315555 -178.213585 70.622707 4.102282 1.241686 1.396793 /home/trose/genarris_mpi4py/merged_4_17_2019/tests/full_diverse_workflow/harris_single_molecule_prep_aims_dir/geometry
