lattice_vector 14.34501 0.0 0.0
lattice_vector 0.0 4.877189 0.0
lattice_vector 2.719009 0.0 3.124199
atom 15.91205 0.41697 3.49081 O
atom 15.19531 1.56626 3.77101 C
atom 15.77231 2.36237 4.22386 H
atom 13.90935 1.36382 3.38092 C
atom 12.43421 1.64910 3.13988 C
atom 12.22014 2.45111 2.42170 H
atom 11.83160 1.81556 4.04211 H
atom 12.33710 0.18325 2.54092 C
atom 12.06492 0.14020 1.47834 H
atom 11.68050 -0.49594 3.09986 H
atom 13.82273 0.05061 2.84278 C
atom 15.05847 -0.50957 2.92030 C
atom 15.52023 -1.45328 2.65951 H
atom 1.15197 2.85556 -0.36661 O
atom 1.86871 4.00486 -0.64681 C
atom 1.29171 4.80097 -1.09966 H
atom 3.15467 3.80241 -0.25672 C
atom 4.62981 4.08769 -0.01568 C
atom 4.84388 4.88971 0.70250 H
atom 5.23242 4.25416 -0.91791 H
atom 4.72692 2.62184 0.58328 C
atom 4.99910 2.57879 1.64586 H
atom 5.38352 1.94265 0.02434 H
atom 3.24128 2.48920 0.28142 C
atom 2.00554 1.92902 0.20390 C
atom 1.54379 0.98531 0.46469 H
