lattice_vector 17.437452 0.0 0.0
lattice_vector 0.0 3.110774 0.0
lattice_vector 7.39857 0.0 4.709582
atom 14.06973 1.10895 2.37985 O
atom 15.41251 0.89292 2.12804 C
atom 16.04635 0.90154 3.00552 H
atom 15.56563 0.72246 0.78851 C
atom 16.25779 0.47945 -0.54467 C
atom 16.72876 -0.50542 -0.65895 H
atom 16.97673 1.25019 -0.85118 H
atom 14.82515 0.60783 -1.21395 C
atom 14.47134 -0.30208 -1.71584 H
atom 14.71771 1.45451 -1.90419 H
atom 14.28141 0.83607 0.18893 C
atom 13.38245 1.07244 1.18033 C
atom 12.31481 1.23100 1.26283 H
atom 10.76629 1.10895 2.32973 O
atom 9.42352 0.89292 2.58154 C
atom 8.78967 0.90154 1.70406 H
atom 9.27039 0.72246 3.92107 C
atom 8.57823 0.47945 5.25425 C
atom 8.10726 -0.50542 5.36853 H
atom 7.85929 1.25019 5.56076 H
atom 10.01088 0.60783 5.92353 C
atom 10.36468 -0.30208 6.42543 H
atom 10.11831 1.45451 6.61377 H
atom 10.55461 0.83607 4.52065 C
atom 11.45357 1.07244 3.52925 C
atom 12.52122 1.23100 3.44675 H
