lattice_vector 5.30691 0.0 0.0
lattice_vector 0.0 9.462833 0.0
lattice_vector -4.034758 0.0 4.96934
atom -3.38734 3.42230 3.29356 O
atom -3.88568 2.21088 3.73766 C
atom -4.85160 1.94039 3.33067 H
atom -2.98107 1.67607 4.59934 C
atom -2.35630 0.68880 5.57427 C
atom -2.10066 -0.29213 5.15324 H
atom -2.90827 0.53599 6.51067 H
atom -1.13766 1.69882 5.68224 C
atom -0.17935 1.29947 5.32565 H
atom -0.98914 2.13029 6.68054 H
atom -1.88825 2.58065 4.69490 C
atom -2.15824 3.64079 3.88863 C
atom -1.67561 4.56831 3.60828 H
atom -1.36996 6.04053 0.80889 O
atom -1.86830 7.25196 1.25299 C
atom -2.83422 7.52244 0.84600 H
atom -0.96368 7.78676 2.11467 C
atom -0.33892 8.77404 3.08960 C
atom -0.08328 9.75496 2.66857 H
atom -0.89089 8.92685 4.02600 H
atom 0.87972 7.76401 3.19757 C
atom 1.83803 8.16337 2.84098 H
atom 1.02824 7.33254 4.19587 H
atom 0.12912 6.88218 2.21023 C
atom -0.14086 5.82205 1.40396 C
atom 0.34177 4.89453 1.12361 H
