lattice_vector 5.732236 0.0 0.0
lattice_vector 0.0 12.21524 0.0
lattice_vector -0.786837 0.0 3.298498
atom 4.46354 5.11123 -0.43549 O
atom 3.77452 3.91208 -0.45569 C
atom 3.04541 3.82047 -1.25055 H
atom 4.22750 3.15099 0.57503 C
atom 4.35887 1.96088 1.51413 C
atom 4.71920 1.03283 1.05184 H
atom 3.46857 1.73178 2.11391 H
atom 5.47290 2.79476 2.27603 C
atom 6.47466 2.34639 2.25487 H
atom 5.22318 3.04865 3.31431 H
atom 5.22696 3.89782 1.25691 C
atom 5.35443 5.09265 0.62211 C
atom 5.95008 5.98997 0.73088 H
atom 4.07012 7.10401 1.21376 O
atom 3.38110 8.30316 1.19356 C
atom 2.65199 8.39477 0.39870 H
atom 3.83408 9.06425 2.22428 C
atom 3.96546 10.25436 3.16338 C
atom 4.32579 11.18242 2.70109 H
atom 3.07515 10.48346 3.76316 H
atom 5.07948 9.42048 3.92528 C
atom 6.08124 9.86885 3.90412 H
atom 4.82976 9.16660 4.96356 H
atom 4.83354 8.31742 2.90616 C
atom 4.96102 7.12259 2.27136 C
atom 5.55666 6.22527 2.38013 H
