lattice_vector 4.608681 0.0 0.0
lattice_vector 0.0 14.098438 0.0
lattice_vector -1.412618 0.0 4.729141
atom 2.76183 11.69074 1.66066 O
atom 2.04210 10.84621 0.83491 C
atom 2.13840 11.05454 -0.22297 H
atom 1.38657 9.95108 1.61970 C
atom 0.48765 8.78405 2.00113 C
atom 0.82472 7.79735 1.65812 H
atom -0.57321 8.90139 1.74486 H
atom 0.84374 9.11519 3.51124 C
atom 1.38393 8.31870 4.03926 H
atom -0.01179 9.42616 4.12460 H
atom 1.70694 10.24701 2.97300 C
atom 2.54860 11.31400 2.97410 C
atom 3.06944 11.91368 3.70958 H
atom 2.76183 2.40770 1.66066 O
atom 2.04210 3.25223 0.83491 C
atom 2.13840 3.04390 -0.22297 H
atom 1.38657 4.14736 1.61970 C
atom 0.48765 5.31439 2.00113 C
atom 0.82472 6.30109 1.65812 H
atom -0.57321 5.19705 1.74486 H
atom 0.84374 4.98325 3.51124 C
atom 1.38393 5.77974 4.03926 H
atom -0.01179 4.67228 4.12460 H
atom 1.70694 3.85143 2.97300 C
atom 2.54860 2.78444 2.97410 C
atom 3.06944 2.18476 3.70958 H
