lattice_vector 7.796917 0.0 0.0
lattice_vector 0.0 3.959383 0.0
lattice_vector 9.000252 0.0 8.551942
atom 3.16796 -0.37526 2.12030 O
atom 1.82150 -0.06090 2.08398 C
atom 1.25050 -0.40965 2.93495 H
atom 1.58299 0.62929 0.93787 C
atom 0.81082 1.39003 -0.13011 C
atom 0.37598 2.34487 0.19243 H
atom 0.03969 0.81306 -0.65674 H
atom 2.18651 1.52080 -0.90938 C
atom 2.54346 2.55087 -1.03799 H
atom 2.20899 1.01660 -1.88412 H
atom 2.81625 0.74773 0.24025 C
atom 3.77100 0.12633 0.98131 C
atom 4.83396 -0.06476 0.90768 H
atom 7.66809 4.33464 6.39627 O
atom 6.32162 4.02029 6.35995 C
atom 5.75063 4.36904 7.21092 H
atom 6.08311 3.33009 5.21384 C
atom 5.31095 2.56935 4.14586 C
atom 4.87611 1.61451 4.46840 H
atom 4.53982 3.14632 3.61923 H
atom 6.68664 2.43859 3.36659 C
atom 7.04359 1.40851 3.23798 H
atom 6.70911 2.94278 2.39185 H
atom 7.31637 3.21166 4.51622 C
atom 8.27112 3.83305 5.25728 C
atom 9.33408 4.02414 5.18365 H
