title geometry
lattice_vector 8.753699 0.000000 0.000000
lattice_vector 0.000000 5.886287 0.000000
lattice_vector 3.303284 0.000000 4.994895
-166.804540 -79.099902 111.479229 6.838720 5.118182 1.378033 /home/trose/genarris_mpi4py/merged_4_17_2019/tests/full_diverse_workflow/harris_single_molecule_prep_aims_dir/geometry
-13.195335 -100.900075 -68.520756 5.218265 2.175037 3.616853 /home/trose/genarris_mpi4py/merged_4_17_2019/tests/full_diverse_workflow/harris_single_molecule_prep_aims_dir/geometry
