lattice_vector 3.597218 0.0 0.0
lattice_vector 0.0 13.379556 0.0
lattice_vector -0.589514 0.0 4.146704
atom 4.11028 12.38570 2.43644 O
atom 3.28842 11.73077 1.53714 C
atom 3.27228 12.15754 0.54245 H
atom 2.70575 10.68767 2.18464 C
atom 1.83182 9.46258 2.41033 C
atom 2.11035 8.57167 1.83281 H
atom 0.75172 9.62661 2.30382 H
atom 2.35739 9.46998 3.90720 C
atom 2.93680 8.58255 4.19314 H
atom 1.58028 9.64114 4.66327 H
atom 3.17797 10.69349 3.52576 C
atom 4.03497 11.74000 3.65706 C
atom 4.64460 12.17369 4.43942 H
atom 4.11028 0.99385 2.43644 O
atom 3.28842 1.64878 1.53714 C
atom 3.27228 1.22202 0.54245 H
atom 2.70575 2.69189 2.18464 C
atom 1.83182 3.91698 2.41033 C
atom 2.11035 4.80789 1.83281 H
atom 0.75172 3.75295 2.30382 H
atom 2.35739 3.90958 3.90720 C
atom 2.93680 4.79700 4.19314 H
atom 1.58028 3.73841 4.66327 H
atom 3.17797 2.68606 3.52576 C
atom 4.03497 1.63956 3.65706 C
atom 4.64460 1.20587 4.43942 H
