lattice_vector 3.665223 0.0 0.0
lattice_vector 0.0 13.722412 0.0
lattice_vector 1.156372 0.0 4.995606
atom 2.90352 9.13729 2.75994 O
atom 2.08039 8.22938 2.11864 C
atom 1.73082 8.54317 1.14338 H
atom 1.93547 7.14899 2.93019 C
atom 1.46275 5.78546 3.41272 C
atom 1.80800 4.92928 2.81893 H
atom 0.38086 5.68940 3.57132 H
atom 2.30288 6.05643 4.73092 C
atom 3.13079 5.35529 4.89813 H
atom 1.70454 6.11933 5.64900 H
atom 2.68964 7.39129 4.11093 C
atom 3.27261 8.61242 3.98503 C
atom 3.92258 9.24652 4.57433 H
atom 1.91807 2.27608 2.23566 O
atom 2.74121 1.36817 2.87697 C
atom 3.09078 1.68196 3.85223 H
atom 2.88612 0.28779 2.06542 C
atom 3.35884 -1.07575 1.58288 C
atom 3.01359 -1.93192 2.17668 H
atom 4.44073 -1.17181 1.42428 H
atom 2.51871 -0.80477 0.26468 C
atom 1.69080 -1.50592 0.09748 H
atom 3.11706 -0.74187 -0.65340 H
atom 2.13195 0.53009 0.88468 C
atom 1.54899 1.75122 1.01058 C
atom 0.89902 2.38531 0.42128 H
