lattice_vector 7.998507 0.0 0.0
lattice_vector 0.0 6.029464 0.0
lattice_vector 0.627113 0.0 5.829622
atom 1.06947 4.01460 2.26290 O
atom 1.55279 2.80974 2.74022 C
atom 1.26257 1.94244 2.16110 H
atom 2.29015 3.06513 3.85283 C
atom 3.16364 2.80464 5.07131 C
atom 4.15938 2.39455 4.85882 H
atom 2.69969 2.20627 5.86602 H
atom 3.13415 4.37119 5.32021 C
atom 4.11295 4.86364 5.25345 H
atom 2.65052 4.67572 6.25733 H
atom 2.26489 4.46928 4.07498 C
atom 1.51287 5.02935 3.09128 C
atom 1.18995 6.02261 2.80674 H
atom 7.55615 4.01460 3.56672 O
atom 7.07283 2.80974 3.08941 C
atom 7.36305 1.94244 3.66852 H
atom 6.33547 3.06513 1.97679 C
atom 5.46198 2.80464 0.75832 C
atom 4.46624 2.39455 0.97080 H
atom 5.92593 2.20627 -0.03639 H
atom 5.49147 4.37119 0.50942 C
atom 4.51267 4.86364 0.57618 H
atom 5.97510 4.67572 -0.42771 H
atom 6.36073 4.46928 1.75465 C
atom 7.11275 5.02935 2.73834 C
atom 7.43567 6.02261 3.02288 H
