title geometry
lattice_vector 9.186705 0.000000 0.000000
lattice_vector 0.000000 6.859634 0.000000
lattice_vector -1.400467 0.000000 3.879138
-13.113722 -9.153670 7.663115 6.979687 5.193973 0.673417 /home/trose/genarris_mpi4py/merged_4_17_2019/tests/full_diverse_workflow/harris_single_molecule_prep_aims_dir/geometry
-166.885809 -170.846791 -172.336376 0.806552 1.764156 3.205712 /home/trose/genarris_mpi4py/merged_4_17_2019/tests/full_diverse_workflow/harris_single_molecule_prep_aims_dir/geometry
