lattice_vector 5.266059 0.0 0.0
lattice_vector 0.0 16.98106 0.0
lattice_vector 1.135435 0.0 2.664703
atom 5.29737 9.88739 2.39417 O
atom 6.58384 10.39510 2.37542 C
atom 7.36001 9.67410 2.59794 H
atom 6.50838 11.71683 2.06857 C
atom 6.96716 13.13900 1.78132 C
atom 7.58449 13.26290 0.88222 H
atom 7.45647 13.65550 2.61718 H
atom 5.43520 13.50184 1.58548 C
atom 5.16995 13.83696 0.57438 H
atom 5.04095 14.22554 2.31051 H
atom 5.13549 12.04160 1.89161 C
atom 4.41364 10.90840 2.09565 C
atom 3.37083 10.61820 2.08308 H
atom 5.29737 7.09367 2.39417 O
atom 6.58384 6.58596 2.37542 C
atom 7.36001 7.30696 2.59794 H
atom 6.50838 5.26423 2.06857 C
atom 6.96716 3.84206 1.78132 C
atom 7.58449 3.71816 0.88222 H
atom 7.45647 3.32556 2.61718 H
atom 5.43520 3.47922 1.58548 C
atom 5.16995 3.14409 0.57438 H
atom 5.04095 2.75552 2.31051 H
atom 5.13549 4.93946 1.89161 C
atom 4.41364 6.07266 2.09565 C
atom 3.37083 6.36286 2.08308 H
