title geometry
lattice_vector 4.545454 0.000000 0.000000
lattice_vector 0.000000 13.249093 0.000000
lattice_vector -1.577378 0.000000 4.489145
62.905513 -15.795819 -70.839809 2.774527 3.640029 2.055902 /home/trose/genarris_mpi4py/merged_4_17_2019/tests/full_diverse_workflow/harris_single_molecule_prep_aims_dir/geometry
-131.168837 -53.373757 9.024410 2.774527 9.609061 2.055902 /home/trose/genarris_mpi4py/merged_4_17_2019/tests/full_diverse_workflow/harris_single_molecule_prep_aims_dir/geometry
