lattice_vector 4.661811 0.0 0.0
lattice_vector 4.397927092161992e-16 7.18236 0.0
lattice_vector 4.397927092161992e-16 4.397927092161992e-16 7.18236
atom 1.02376 0.00000 4.98973 C
atom 1.02376 1.21131 4.29047 C
atom 1.02376 1.21131 2.89189 C
atom 1.02376 0.00000 2.19263 C
atom 1.02376 -1.21131 2.89189 C
atom 1.02376 -1.21131 4.29047 C
atom 1.02376 0.00000 6.08113 H
atom 1.02376 2.15642 4.83631 H
atom 1.02376 2.15642 2.34605 H
atom 1.02376 0.00000 1.10123 H
atom 1.02376 -2.15642 2.34605 H
atom 1.02376 -2.15642 4.83631 H
atom 3.35467 2.19263 0.00000 C
atom 3.35467 2.89189 1.21131 C
atom 3.35467 4.29047 1.21131 C
atom 3.35467 4.98973 0.00000 C
atom 3.35467 4.29047 -1.21131 C
atom 3.35467 2.89189 -1.21131 C
atom 3.35467 1.10123 0.00000 H
atom 3.35467 2.34605 2.15642 H
atom 3.35467 4.83631 2.15642 H
atom 3.35467 6.08113 0.00000 H
atom 3.35467 4.83631 -2.15642 H
atom 3.35467 2.34605 -2.15642 H
