lattice_vector 16.093283 0.0 0.0
lattice_vector 0.0 6.036835 0.0
lattice_vector 4.445166 0.0 3.070792
atom 9.31426 5.01425 3.65010 O
atom 9.13063 5.27732 2.30467 C
atom 8.10971 5.49767 2.02012 H
atom 10.33886 5.18112 1.69006 C
atom 11.37216 5.19870 0.57313 C
atom 11.53050 6.17270 0.09240 H
atom 11.23657 4.43949 -0.20794 H
atom 12.44712 4.82554 1.67861 C
atom 13.22620 5.58320 1.83350 H
atom 12.92906 3.84971 1.53601 H
atom 11.30245 4.84813 2.68114 C
atom 10.65378 4.75102 3.87137 C
atom 10.91019 4.53062 4.89971 H
atom 11.22419 1.99583 -0.57931 O
atom 11.40782 2.25891 0.76612 C
atom 12.42874 2.47925 1.05067 H
atom 10.19959 2.16270 1.38073 C
atom 9.16629 2.18029 2.49766 C
atom 9.00795 3.15428 2.97839 H
atom 9.30188 1.42107 3.27873 H
atom 8.09133 1.80712 1.39218 C
atom 7.31225 2.56478 1.23729 H
atom 7.60939 0.83129 1.53478 H
atom 9.23599 1.82971 0.38965 C
atom 9.88467 1.73260 -0.80058 C
atom 9.62826 1.51221 -1.82892 H
