lattice_vector 22.938889 0.0 0.0
lattice_vector 0.0 2.891138 0.0
lattice_vector -4.548588 0.0 3.002924
atom 4.77816 1.34011 -1.43471 O
atom 6.15370 1.45124 -1.34165 C
atom 6.63764 1.85263 -2.22283 H
atom 6.52813 1.00514 -0.11379 C
atom 7.43681 0.63928 1.05067 C
atom 7.97313 1.47846 1.51214 H
atom 8.15227 -0.16998 0.85552 H
atom 6.12477 0.19044 1.82138 C
atom 5.90606 0.76925 2.72810 H
atom 6.08295 -0.87836 2.06789 H
atom 5.35204 0.60428 0.57741 C
atom 4.29457 0.81767 -0.24907 C
atom 3.22041 0.68821 -0.21370 H
atom 13.61214 1.34011 4.43763 O
atom 12.23660 1.45124 4.34458 C
atom 11.75266 1.85263 5.22576 H
atom 11.86217 1.00514 3.11672 C
atom 10.95349 0.63928 1.95225 C
atom 10.41717 1.47846 1.49079 H
atom 10.23803 -0.16998 2.14741 H
atom 12.26553 0.19044 1.18155 C
atom 12.48424 0.76925 0.27483 H
atom 12.30735 -0.87836 0.93503 H
atom 13.03826 0.60428 2.42552 C
atom 14.09574 0.81767 3.25200 C
atom 15.16989 0.68821 3.21663 H
