title geometry
lattice_vector 22.938889 0.000000 0.000000
lattice_vector 0.000000 2.891138 0.000000
lattice_vector -4.548588 0.000000 3.002924
54.281725 -59.915216 71.602974 5.798970 0.868920 0.028837 /home/trose/genarris_mpi4py/merged_4_17_2019/tests/full_diverse_workflow/harris_single_molecule_prep_aims_dir/geometry
125.718352 -120.084694 -108.396935 12.591333 0.868920 2.974079 /home/trose/genarris_mpi4py/merged_4_17_2019/tests/full_diverse_workflow/harris_single_molecule_prep_aims_dir/geometry
