lattice_vector 7.141717 0.0 0.0
lattice_vector 0.0 13.375617 0.0
lattice_vector 4.489444 0.0 2.596537
atom 6.22960 11.79953 0.96690 O
atom 5.37323 11.07516 0.15756 C
atom 5.15425 11.53430 -0.79797 H
atom 5.03205 9.93846 0.81964 C
atom 4.36556 8.59869 1.09595 C
atom 4.66633 7.77677 0.43351 H
atom 3.26967 8.61934 1.15463 H
atom 5.10351 8.61864 2.50020 C
atom 5.82781 7.80715 2.64809 H
atom 4.43261 8.65365 3.36825 H
atom 5.69462 9.95572 2.07754 C
atom 6.42067 11.10247 2.14594 C
atom 7.07978 11.58369 2.85714 H
atom 3.98488 1.57608 -0.33137 O
atom 3.12850 2.30046 -1.14070 C
atom 2.90953 1.84132 -2.09624 H
atom 2.78733 3.43716 -0.47863 C
atom 2.12084 4.77693 -0.20232 C
atom 2.42160 5.59884 -0.86476 H
atom 1.02494 4.75627 -0.14363 H
atom 2.85879 4.75698 1.20194 C
atom 3.58309 5.56847 1.34982 H
atom 2.18789 4.72197 2.06998 H
atom 3.44990 3.41990 0.77927 C
atom 4.17595 2.27315 0.84767 C
atom 4.83506 1.79192 1.55887 H
