title geometry
lattice_vector 6.119139 0.000000 0.000000
lattice_vector 0.000000 11.092394 0.000000
lattice_vector 3.013171 0.000000 4.272666
85.503208 -169.138898 -73.291155 5.789051 2.686288 2.668235 /home/trose/genarris_mpi4py/merged_4_17_2019/tests/full_diverse_workflow/harris_single_molecule_prep_aims_dir/geometry
-177.762089 -132.261427 -136.998621 4.282465 8.406102 0.531902 /home/trose/genarris_mpi4py/merged_4_17_2019/tests/full_diverse_workflow/harris_single_molecule_prep_aims_dir/geometry
