lattice_vector 3.660416 0.0 0.0
lattice_vector 0.0 16.367275 0.0
lattice_vector 3.77335 0.0 4.669508
atom 3.96141 15.28698 2.17431 O
atom 3.16754 14.39462 1.47677 C
atom 2.86407 14.72945 0.49310 H
atom 2.98349 13.29799 2.25803 C
atom 2.48681 11.92592 2.68961 C
atom 2.85795 11.08139 2.09474 H
atom 1.39859 11.82927 2.79585 H
atom 3.26529 12.16740 4.05070 C
atom 4.08349 11.46088 4.24145 H
atom 2.62510 12.21272 4.94117 H
atom 3.68243 13.51387 3.47725 C
atom 4.27246 14.73590 3.40399 C
atom 4.89535 15.35602 4.03587 H
atom 3.96141 1.08029 2.17431 O
atom 3.16754 1.97266 1.47677 C
atom 2.86407 1.63783 0.49310 H
atom 2.98349 3.06928 2.25803 C
atom 2.48681 4.44136 2.68961 C
atom 2.85795 5.28588 2.09474 H
atom 1.39859 4.53800 2.79585 H
atom 3.26529 4.19988 4.05070 C
atom 4.08349 4.90639 4.24145 H
atom 2.62510 4.15455 4.94117 H
atom 3.68243 2.85341 3.47725 C
atom 4.27246 1.63138 3.40399 C
atom 4.89535 1.01126 4.03587 H
