lattice_vector 11.671263 0.0 0.0
lattice_vector 0.0 4.79242 0.0
lattice_vector 7.789072 0.0 5.004227
atom 10.48989 0.57889 -0.08317 O
atom 11.39094 1.58405 0.21829 C
atom 12.19345 1.70458 -0.49812 H
atom 10.99730 2.16457 1.38228 C
atom 11.00715 3.10870 2.57561 C
atom 10.87120 4.17151 2.33728 H
atom 11.86638 3.00742 3.25113 H
atom 9.69170 2.36791 3.06317 C
atom 8.79821 3.00404 3.10804 H
atom 9.79383 1.83724 4.01858 H
atom 9.81753 1.50156 1.81840 C
atom 9.52600 0.53602 0.90759 C
atom 8.76494 -0.22127 0.76929 H
atom 14.38443 4.21353 2.41894 O
atom 15.28548 3.20837 2.72040 C
atom 16.08798 3.08784 2.00399 H
atom 14.89184 2.62785 3.88440 C
atom 14.90169 1.68372 5.07773 C
atom 14.76573 0.62091 4.83940 H
atom 15.76092 1.78500 5.75325 H
atom 13.58623 2.42451 5.56529 C
atom 12.69274 1.78838 5.61015 H
atom 13.68837 2.95518 6.52069 H
atom 13.71207 3.29086 4.32052 C
atom 13.42053 4.25640 3.40970 C
atom 12.65947 5.01369 3.27140 H
