title geometry
lattice_vector 3.333256 0.000000 0.000000
lattice_vector 0.000000 13.762612 0.000000
lattice_vector 1.890058 0.000000 5.382698
28.857761 -22.471963 -41.869701 3.457214 3.272854 2.971995 /home/trose/genarris_mpi4py/merged_4_17_2019/tests/full_diverse_workflow/harris_single_molecule_prep_aims_dir/geometry
-117.521487 -45.418746 -1.803560 3.457214 10.489755 2.971995 /home/trose/genarris_mpi4py/merged_4_17_2019/tests/full_diverse_workflow/harris_single_molecule_prep_aims_dir/geometry
