lattice_vector 3.812636 0.0 0.0
lattice_vector 0.0 10.038986 0.0
lattice_vector -5.656176 0.0 5.790153
atom -2.12487 5.72269 1.13748 O
atom -1.19626 5.16975 0.27431 C
atom -1.24917 5.53387 -0.74374 H
atom -0.44383 4.28447 0.97926 C
atom 0.62669 3.24325 1.27144 C
atom 1.66274 3.58619 1.15386 H
atom 0.51155 2.28676 0.74537 H
atom 0.09684 3.24349 2.76682 C
atom 0.82799 3.58433 3.51130 H
atom -0.32632 2.28761 3.10158 H
atom -0.91780 4.28584 2.31978 C
atom -1.94548 5.17202 2.39332 C
atom -2.62568 5.53789 3.15179 H
atom 0.28133 10.74219 4.65267 O
atom -0.64727 10.18925 5.51584 C
atom -0.59437 10.55336 6.53389 H
atom -1.39971 9.30396 4.81089 C
atom -2.47023 8.26274 4.51871 C
atom -3.50628 8.60568 4.63629 H
atom -2.35509 7.30625 5.04478 H
atom -1.94038 8.26298 3.02333 C
atom -2.67153 8.60382 2.27885 H
atom -1.51722 7.30710 2.68857 H
atom -0.92574 9.30533 3.47038 C
atom 0.10194 10.19151 3.39684 C
atom 0.78214 10.55739 2.63836 H
