lattice_vector 7.12923224168 0 0
lattice_vector 6.38384293064e-16 10.4256066894 0
lattice_vector -5.76202990615 1.30128075338e-15 14.3778839019
atom -1.34205 1.86786 6.06108 S
atom 0.72683 3.70510 5.62193 C
atom 1.33479 1.04873 5.63737 C
atom 2.03622 2.60832 6.07500 S
atom -0.05868 0.76050 5.62190 C
atom -0.61128 3.41600 5.61864 C
atom -1.57369 4.39729 5.26893 C
atom 1.19333 4.99794 5.26865 C
atom -2.39963 5.17899 5.00866 N
atom 1.61900 6.05163 5.00540 N
atom -0.25835 -0.56673 5.25810 C
atom -1.47646 -1.25926 5.11618 C
atom -2.47866 -1.84340 4.99428 N
atom 2.15378 0.06053 5.32279 N
atom 1.29141 -1.30617 5.01183 S
atom 5.59026 7.08067 1.12786 S
atom 3.52139 8.91791 1.56701 C
atom 2.91342 6.26153 1.55158 C
atom 2.21199 7.82112 1.11394 S
atom 4.30690 5.97330 1.56704 C
atom 4.85950 8.62880 1.57030 C
atom 5.82190 9.61009 1.92001 C
atom 3.05488 10.21074 1.92030 C
atom 6.64785 10.39179 2.18028 N
atom 2.62922 11.26443 2.18354 N
atom 4.50657 4.64607 1.93084 C
atom 5.72468 3.95354 2.07276 C
atom 6.72688 3.36941 2.19467 N
atom 2.09444 5.27333 1.86615 N
atom 2.95681 3.90663 2.17711 S
atom 2.70925 8.55774 8.31680 S
atom 0.64037 6.72050 8.75595 C
atom 0.03241 9.37688 8.74052 C
atom -0.66902 7.81729 8.30288 S
atom 1.42589 9.66511 8.75598 C
atom 1.97848 7.00961 8.75924 C
atom 2.94089 6.02832 9.10895 C
atom 0.17387 5.42767 9.10924 C
atom 3.76684 5.24662 9.36923 N
atom -0.25179 4.37398 9.37248 N
atom 1.62556 10.99234 9.11979 C
atom 2.84366 11.68487 9.26170 C
atom 3.84586 12.26900 9.38361 N
atom -0.78657 10.36508 9.05510 N
atom 0.07579 11.73178 9.36605 S
atom -4.22306 3.34494 13.25002 S
atom -2.15419 1.50770 12.81088 C
atom -1.54622 4.16408 12.82631 C
atom -0.84479 2.60448 13.26395 S
atom -2.93970 4.45230 12.81084 C
atom -3.49229 1.79681 12.80758 C
atom -4.45470 0.81551 12.45787 C
atom -1.68768 0.21486 12.45759 C
atom -5.28065 0.03382 12.19760 N
atom -1.26202 -0.83883 12.19435 N
atom -3.13937 5.77954 12.44704 C
atom -4.35748 6.47207 12.30513 C
atom -5.35968 7.05620 12.18322 N
atom -0.72724 5.15227 12.51173 N
atom -1.58961 6.51897 12.20077 S
