lattice_vector 6.798617 0.0 0.0
lattice_vector 0.0 14.81787 0.0
lattice_vector -2.570818 0.0 2.720906
atom 2.18418 13.44305 1.32178 O
atom 1.27864 12.79127 0.50428 C
atom 1.08645 13.28096 -0.44181 H
atom 0.86606 11.66772 1.14790 C
atom 0.11394 10.36993 1.40396 C
atom 0.35720 9.54208 0.72548 H
atom -0.97797 10.46155 1.46879 H
atom 0.85735 10.31599 2.80443 C
atom 1.52724 9.45608 2.93408 H
atom 0.19379 10.37939 3.67649 H
atom 1.53350 11.61869 2.40240 C
atom 2.33376 12.71379 2.48726 C
atom 3.02605 13.13772 3.20338 H
atom 2.18418 1.37482 1.32178 O
atom 1.27864 2.02660 0.50428 C
atom 1.08645 1.53691 -0.44181 H
atom 0.86606 3.15015 1.14790 C
atom 0.11394 4.44794 1.40396 C
atom 0.35720 5.27579 0.72548 H
atom -0.97797 4.35632 1.46879 H
atom 0.85735 4.50188 2.80443 C
atom 1.52724 5.36179 2.93408 H
atom 0.19379 4.43848 3.67649 H
atom 1.53350 3.19918 2.40240 C
atom 2.33376 2.10408 2.48726 C
atom 3.02605 1.68015 3.20338 H
