lattice_vector 5.875945 0.0 0.0
lattice_vector 0.0 7.013122 0.0
lattice_vector -1.780487 0.0 6.433882
atom 4.13585 0.04690 -0.03721 O
atom 2.75583 0.13925 -0.02649 C
atom 2.26430 -0.30305 -0.88356 H
atom 2.38802 0.78877 1.10915 C
atom 1.48392 1.42478 2.15491 C
atom 0.80853 0.73475 2.67695 H
atom 0.90453 2.29243 1.81380 H
atom 2.80621 1.78529 2.95398 C
atom 2.89195 1.30499 3.93732 H
atom 2.99023 2.86108 3.07088 H
atom 3.57306 1.11052 1.82595 C
atom 4.62909 0.64777 1.10656 C
atom 5.70744 0.63164 1.19997 H
atom -0.04039 3.55346 6.47110 O
atom 1.33963 3.64581 6.46037 C
atom 1.83116 3.20351 7.31744 H
atom 1.70743 4.29533 5.32473 C
atom 2.61153 4.93134 4.27897 C
atom 3.28693 4.24131 3.75693 H
atom 3.19093 5.79899 4.62008 H
atom 1.28925 5.29185 3.47991 C
atom 1.20351 4.81155 2.49657 H
atom 1.10523 6.36764 3.36300 H
atom 0.52240 4.61708 4.60794 C
atom -0.53363 4.15433 5.32732 C
atom -1.61198 4.13820 5.23391 H
