lattice_vector 9.833338 0.0 0.0
lattice_vector 0.0 6.070321 0.0
lattice_vector 0.858564 0.0 2.742137
atom 7.29449 1.42053 -0.78807 O
atom 6.19374 2.22295 -0.54810 C
atom 5.24476 1.79129 -0.83947 H
atom 6.63307 3.38061 0.01195 C
atom 6.58460 4.77357 0.62257 C
atom 6.05546 4.85015 1.58121 H
atom 6.22335 5.56864 -0.04243 H
atom 8.16358 4.68088 0.74556 C
atom 8.54468 4.70630 1.77469 H
atom 8.71238 5.42100 0.14900 H
atom 8.04805 3.29685 0.12350 C
atom 8.43044 2.09046 -0.37173 C
atom 9.35636 1.54817 -0.51460 H
atom 3.39742 1.42053 3.53021 O
atom 4.49817 2.22295 3.29023 C
atom 5.44714 1.79129 3.58161 H
atom 4.05883 3.38061 2.73019 C
atom 4.10730 4.77357 2.11957 C
atom 4.63644 4.85015 1.16093 H
atom 4.46855 5.56864 2.78457 H
atom 2.52833 4.68088 1.99658 C
atom 2.14722 4.70630 0.96745 H
atom 1.97952 5.42100 2.59313 H
atom 2.64385 3.29685 2.61864 C
atom 2.26146 2.09046 3.11387 C
atom 1.33554 1.54817 3.25673 H
