title geometry
lattice_vector 9.833338 0.000000 0.000000
lattice_vector 0.000000 6.070321 0.000000
lattice_vector 0.858564 0.000000 2.742137
-156.688977 -100.931142 50.011741 7.335005 3.105934 -0.037194 /home/trose/genarris_mpi4py/merged_4_17_2019/tests/full_diverse_workflow/harris_single_molecule_prep_aims_dir/geometry
-23.311118 -79.068950 -129.988019 3.356898 3.105934 2.779322 /home/trose/genarris_mpi4py/merged_4_17_2019/tests/full_diverse_workflow/harris_single_molecule_prep_aims_dir/geometry
