lattice_vector 5.81882 0.0 0.0
lattice_vector 0.0 9.212038 0.0
lattice_vector -4.60879 0.0 4.378061
atom 0.22614 5.70944 1.96769 O
atom 1.11446 6.71938 2.29020 C
atom 1.15172 6.97286 3.34194 H
atom 1.71869 7.12810 1.14360 C
atom 2.63647 7.91939 0.22324 C
atom 3.71146 7.78325 0.39838 H
atom 2.42507 8.99438 0.15552 H
atom 2.04669 7.05312 -0.96783 C
atom 2.78195 6.41950 -1.48059 H
atom 1.49286 7.62881 -1.72063 H
atom 1.19114 6.35066 0.07639 C
atom 0.28055 5.49038 0.60329 C
atom -0.38050 4.71367 0.24060 H
atom 0.98389 1.10342 2.41037 O
atom 0.09557 2.11336 2.08786 C
atom 0.05831 2.36684 1.03612 H
atom -0.50866 2.52208 3.23446 C
atom -1.42643 3.31337 4.15483 C
atom -2.50143 3.17723 3.97968 H
atom -1.21504 4.38836 4.22254 H
atom -0.83666 2.44711 5.34589 C
atom -1.57192 1.81348 5.85865 H
atom -0.28284 3.02278 6.09869 H
atom 0.01889 1.74464 4.30167 C
atom 0.92948 0.88437 3.77477 C
atom 1.59053 0.10766 4.13746 H
