lattice_vector 22.54425 0.0 0.0
lattice_vector 0.0 3.476727 0.0
lattice_vector -3.659669 0.0 2.858609
atom -0.33562 0.61144 0.88295 O
atom 0.89818 -0.00996 0.95165 C
atom 1.25292 -0.42027 0.01485 H
atom 1.33858 0.07335 2.23460 C
atom 2.24842 -0.10720 3.44089 C
atom 3.21773 0.40438 3.38131 H
atom 2.41804 -1.14564 3.75352 H
atom 1.14518 0.66432 4.28025 C
atom 1.47912 1.61929 4.70630 H
atom 0.67696 0.06932 5.07498 H
atom 0.35045 0.76611 2.98647 C
atom -0.66380 1.08518 2.14010 C
atom -1.61782 1.59319 2.19996 H
atom 19.22020 0.61144 1.97566 O
atom 17.98640 -0.00996 1.90695 C
atom 17.63166 -0.42027 2.84376 H
atom 17.54600 0.07335 0.62401 C
atom 16.63617 -0.10720 -0.58228 C
atom 15.66685 0.40438 -0.52270 H
atom 16.46654 -1.14564 -0.89491 H
atom 17.73940 0.66432 -1.42164 C
atom 17.40546 1.61929 -1.84769 H
atom 18.20762 0.06932 -2.21637 H
atom 18.53413 0.76611 -0.12786 C
atom 19.54838 1.08518 0.71851 C
atom 20.50240 1.59319 0.65864 H
