lattice_vector 10.561021 0.0 0.0
lattice_vector 0.0 8.258484 0.0
lattice_vector 5.84566 0.0 3.558829
atom 3.76007 5.34065 -1.16712 O
atom 3.90146 6.06933 -0.00001 C
atom 3.35581 7.00402 0.02085 H
atom 4.72302 5.37512 0.83061 C
atom 5.53692 5.03811 2.07139 C
atom 4.95509 4.88099 2.98878 H
atom 6.36500 5.72345 2.29379 H
atom 5.96399 3.70544 1.32406 C
atom 5.63037 2.78030 1.81173 H
atom 7.03814 3.62417 1.11327 H
atom 5.10454 4.18007 0.16134 C
atom 4.50445 4.18025 -1.05798 C
atom 4.46428 3.53102 -1.92325 H
atom 12.64662 1.21141 4.72595 O
atom 12.50522 1.94009 3.55884 C
atom 13.05087 2.87478 3.53798 H
atom 11.68366 1.24588 2.72822 C
atom 10.86976 0.90887 1.48744 C
atom 11.45159 0.75174 0.57005 H
atom 10.04168 1.59421 1.26504 H
atom 10.44269 -0.42380 2.23477 C
atom 10.77631 -1.34894 1.74710 H
atom 9.36854 -0.50507 2.44556 H
atom 11.30214 0.05083 3.39749 C
atom 11.90223 0.05101 4.61681 C
atom 11.94240 -0.59822 5.48208 H
