lattice_vector 15.570921 0.0 0.0
lattice_vector 0.0 5.006974 0.0
lattice_vector 4.941154 0.0 3.478999
atom 10.57936 0.47947 -0.70150 O
atom 10.07032 0.95058 0.49518 C
atom 9.02230 1.22025 0.46824 H
atom 11.07488 0.94181 1.41040 C
atom 11.78850 1.12922 2.74125 C
atom 11.42455 0.50063 3.56420 H
atom 11.86143 2.16525 3.09647 H
atom 13.09247 0.58382 2.02075 C
atom 13.48137 -0.35772 2.42971 H
atom 13.91602 1.30679 1.95830 H
atom 12.24311 0.45160 0.76498 C
atom 11.91694 0.17562 -0.52509 C
atom 12.41708 -0.20467 -1.40660 H
atom 9.93271 2.98296 4.18050 O
atom 10.44175 3.45407 2.98382 C
atom 11.48978 3.72373 3.01076 H
atom 9.43719 3.44530 2.06860 C
atom 8.72357 3.63271 0.73775 C
atom 9.08753 3.00412 -0.08520 H
atom 8.65064 4.66874 0.38253 H
atom 7.41961 3.08731 1.45825 C
atom 7.03071 2.14576 1.04929 H
atom 6.59605 3.81028 1.52070 H
atom 8.26897 2.95509 2.71402 C
atom 8.59514 2.67911 4.00409 C
atom 8.09500 2.29882 4.88560 H
