lattice_vector 4.881754 0.0 0.0
lattice_vector 0.0 17.692198 0.0
lattice_vector -3.818796 0.0 3.211761
atom 0.23892 5.72633 -0.10722 O
atom 0.80495 4.60962 -0.69517 C
atom 1.58612 4.82140 -1.41400 H
atom 0.19349 3.51006 -0.18142 C
atom -0.13685 2.04236 0.04718 C
atom 0.67039 1.43954 0.48285 H
atom -0.54395 1.50886 -0.82145 H
atom -1.22600 2.53863 1.08851 C
atom -1.04787 2.22009 2.12378 H
atom -2.26125 2.29345 0.81837 H
atom -0.78159 3.95487 0.75293 C
atom -0.73634 5.31280 0.78182 C
atom -1.24701 6.11338 1.30153 H
atom 0.23892 11.96586 -0.10722 O
atom 0.80495 13.08258 -0.69517 C
atom 1.58612 12.87079 -1.41400 H
atom 0.19349 14.18213 -0.18142 C
atom -0.13685 15.64984 0.04718 C
atom 0.67039 16.25266 0.48285 H
atom -0.54395 16.18334 -0.82145 H
atom -1.22600 15.15356 1.08851 C
atom -1.04787 15.47211 2.12378 H
atom -2.26125 15.39874 0.81837 H
atom -0.78159 13.73733 0.75293 C
atom -0.73634 12.37940 0.78182 C
atom -1.24701 11.57882 1.30153 H
