title geometry
lattice_vector 4.253772 0.000000 0.000000
lattice_vector 0.000000 13.720982 0.000000
lattice_vector -0.831385 0.000000 3.396841
-158.716073 -44.851779 174.299189 2.079556 3.390009 0.511108 /home/trose/genarris_mpi4py/merged_4_17_2019/tests/full_diverse_workflow/harris_single_molecule_prep_aims_dir/geometry
-176.090742 -88.628435 51.982687 2.079556 10.330969 0.511108 /home/trose/genarris_mpi4py/merged_4_17_2019/tests/full_diverse_workflow/harris_single_molecule_prep_aims_dir/geometry
