lattice_vector 12.342753 0.0 0.0
lattice_vector 0.0 3.061504 0.0
lattice_vector 8.578032 0.0 5.999625
atom 5.43623 2.70391 0.10592 O
atom 4.16669 2.15498 0.11350 C
atom 3.74590 1.97006 -0.86657 H
atom 3.78718 1.99446 1.40851 C
atom 2.91672 1.62373 2.60031 C
atom 2.69122 0.55463 2.70524 H
atom 1.98199 2.19095 2.69729 H
atom 4.10271 2.14149 3.51805 C
atom 4.55925 1.37156 4.15348 H
atom 3.85209 3.00911 4.14196 H
atom 4.85074 2.45714 2.23094 C
atom 5.84797 2.88631 1.41350 C
atom 6.83633 3.31387 1.52369 H
atom 9.72525 0.35759 3.10574 O
atom 8.45571 0.90652 3.11332 C
atom 8.03492 1.09145 2.13324 H
atom 8.07620 1.06705 4.40832 C
atom 7.20574 1.43777 5.60012 C
atom 6.98023 2.50687 5.70505 H
atom 6.27101 0.87055 5.69710 H
atom 8.39173 0.92001 6.51786 C
atom 8.84827 1.68994 7.15330 H
atom 8.14110 0.05240 7.14178 H
atom 9.13976 0.60436 5.23075 C
atom 10.13698 0.17519 4.41331 C
atom 11.12535 -0.25237 4.52351 H
