lattice_vector 21.031086 0.0 0.0
lattice_vector 0.0 4.10341 0.0
lattice_vector 3.785812 0.0 2.900395
atom 5.88290 2.07720 2.09365 O
atom 6.65948 1.74741 0.99762 C
atom 6.18773 1.07515 0.29241 H
atom 7.85088 2.38970 1.11956 C
atom 9.26412 2.84215 0.78258 C
atom 9.36109 3.44717 -0.12813 H
atom 10.02145 2.04795 0.75885 H
atom 9.22519 3.67877 2.12997 C
atom 9.30197 4.76560 1.99616 H
atom 9.95846 3.36466 2.88395 H
atom 7.81534 3.14064 2.32640 C
atom 6.60322 2.93447 2.90529 C
atom 6.08477 3.25783 3.79887 H
atom 18.93399 2.07720 0.80675 O
atom 18.15742 1.74741 1.90278 C
atom 18.62917 1.07515 2.60799 H
atom 16.96602 2.38970 1.78083 C
atom 15.55278 2.84215 2.11782 C
atom 15.45580 3.44717 3.02852 H
atom 14.79545 2.04795 2.14154 H
atom 15.59171 3.67877 0.77043 C
atom 15.51493 4.76560 0.90424 H
atom 14.85844 3.36466 0.01644 H
atom 17.00156 3.14064 0.57399 C
atom 18.21368 2.93447 -0.00490 C
atom 18.73213 3.25783 -0.89847 H
