title geometry
lattice_vector 14.483533 0.000000 0.000000
lattice_vector 0.000000 2.964797 0.000000
lattice_vector -4.292129 0.000000 6.109491
-148.434618 -23.718285 73.421182 10.264417 0.641331 0.631755 /home/trose/genarris_mpi4py/merged_4_17_2019/tests/full_diverse_workflow/harris_single_molecule_prep_aims_dir/geometry
-31.565167 -156.281568 -106.578499 -0.073012 2.123730 5.477727 /home/trose/genarris_mpi4py/merged_4_17_2019/tests/full_diverse_workflow/harris_single_molecule_prep_aims_dir/geometry
