lattice_vector 5.694051 0.0 0.0
lattice_vector 0.0 3.096226 0.0
lattice_vector 18.730839 0.0 14.316276
atom 21.79143 1.47694 14.41194 O
atom 22.32427 1.52740 13.13654 C
atom 23.40351 1.45619 13.09199 H
atom 21.29605 1.65786 12.25758 C
atom 20.57116 1.80049 10.92727 C
atom 20.66239 0.94446 10.24629 H
atom 20.78786 2.71935 10.36727 H
atom 19.22363 1.83804 11.76371 C
atom 18.53727 1.00513 11.56329 H
atom 18.66510 2.77993 11.68787 H
atom 20.08830 1.69002 13.00720 C
atom 20.41516 1.57817 14.32154 C
atom 19.89369 1.54914 15.26972 H
atom 12.42601 1.61928 7.25381 O
atom 12.95885 1.56883 5.97840 C
atom 14.03808 1.64004 5.93385 H
atom 11.93063 1.43837 5.09944 C
atom 11.20574 1.29574 3.76913 C
atom 11.29697 2.15177 3.08815 H
atom 11.42244 0.37688 3.20914 H
atom 9.85820 1.25818 4.60557 C
atom 9.17185 2.09110 4.40515 H
atom 9.29968 0.31630 4.52973 H
atom 10.72288 1.40621 5.84906 C
atom 11.04974 1.51806 7.16340 C
atom 10.52827 1.54708 8.11158 H
