lattice_vector 7.787012 0.0 0.0
lattice_vector 0.0 13.420507 0.0
lattice_vector 4.269013 0.0 2.616723
atom 8.48372 2.00354 0.54767 O
atom 8.92551 2.98189 1.41990 C
atom 9.82348 2.72905 1.96900 H
atom 8.06903 4.03386 1.33841 C
atom 7.46304 5.40029 1.62331 C
atom 8.08640 6.25993 1.34532 H
atom 7.09481 5.54980 2.64651 H
atom 6.34159 5.02814 0.56467 C
atom 6.31703 5.67446 -0.32228 H
atom 5.32723 4.96042 0.97858 H
atom 7.06483 3.70084 0.38852 C
atom 7.33819 2.45543 -0.08169 C
atom 6.90555 1.76206 -0.79153 H
atom 10.61823 11.41696 1.85603 O
atom 11.06001 10.43862 2.72826 C
atom 11.95798 10.69146 3.27737 H
atom 10.20354 9.38665 2.64677 C
atom 9.59755 8.02021 2.93168 C
atom 10.22090 7.16058 2.65368 H
atom 9.22932 7.87071 3.95487 H
atom 8.47610 8.39237 1.87303 C
atom 8.45153 7.74605 0.98608 H
atom 7.46173 8.46008 2.28694 H
atom 9.19933 9.71967 1.69688 C
atom 9.47270 10.96507 1.22667 C
atom 9.04005 11.65845 0.51683 H
