lattice_vector 4.048089 0.0 0.0
lattice_vector 0.0 16.116314 0.0
lattice_vector -0.395216 0.0 4.734811
atom 2.12856 13.79771 2.08357 O
atom 1.30793 12.95816 1.35224 C
atom 1.01792 13.33902 0.38135 H
atom 1.08651 11.83978 2.09186 C
atom 0.54457 10.46946 2.47139 C
atom 0.88963 9.63604 1.84594 H
atom -0.54647 10.40431 2.57256 H
atom 1.32708 10.63473 3.84152 C
atom 2.12148 9.89542 4.00687 H
atom 0.68647 10.66766 4.73224 H
atom 1.78904 11.98735 3.31918 C
atom 2.41853 13.19146 3.29225 C
atom 3.05961 13.76709 3.94760 H
atom 2.32617 2.31860 -0.28384 O
atom 1.50554 3.15815 -1.01517 C
atom 1.21553 2.77729 -1.98606 H
atom 1.28412 4.27653 -0.27555 C
atom 0.74218 5.64686 0.10398 C
atom 1.08724 6.48028 -0.52147 H
atom -0.34887 5.71201 0.20515 H
atom 1.52468 5.48158 1.47412 C
atom 2.31909 6.22089 1.63946 H
atom 0.88408 5.44865 2.36483 H
atom 1.98665 4.12896 0.95177 C
atom 2.61614 2.92485 0.92485 C
atom 3.25722 2.34922 1.58019 H
