title geometry
lattice_vector 11.741952 0.000000 0.000000
lattice_vector 0.000000 3.207630 0.000000
lattice_vector -1.973254 0.000000 5.097779
-23.783509 -158.772232 -58.277205 7.998597 0.580629 2.034637 /home/trose/genarris_mpi4py/merged_4_17_2019/tests/full_diverse_workflow/harris_single_molecule_prep_aims_dir/geometry
-156.215881 -21.227584 121.722208 1.770102 0.580629 3.063133 /home/trose/genarris_mpi4py/merged_4_17_2019/tests/full_diverse_workflow/harris_single_molecule_prep_aims_dir/geometry
