lattice_vector 12.489686 0.0 0.0
lattice_vector 0.0 5.412741 0.0
lattice_vector -2.430819 0.0 3.183428
atom 9.61085 5.93738 -0.22159 O
atom 8.80435 5.09642 -0.96688 C
atom 8.52946 5.47727 -1.94217 H
atom 8.57341 3.97701 -0.23174 C
atom 8.02854 2.60515 0.13792 C
atom 8.38581 1.77298 -0.48231 H
atom 6.93613 2.53738 0.22107 H
atom 8.78799 2.77132 1.52086 C
atom 9.58130 2.03375 1.69878 H
atom 8.13273 2.80213 2.40093 H
atom 9.25530 4.12538 1.00707 C
atom 9.88231 5.33098 0.99131 C
atom 10.51116 5.90766 1.65750 H
atom 0.44802 5.93738 3.40502 O
atom 1.25452 5.09642 4.15031 C
atom 1.52941 5.47727 5.12560 H
atom 1.48545 3.97701 3.41516 C
atom 2.03033 2.60515 3.04551 C
atom 1.67306 1.77298 3.66574 H
atom 3.12274 2.53738 2.96235 H
atom 1.27088 2.77132 1.66257 C
atom 0.47756 2.03375 1.48465 H
atom 1.92614 2.80213 0.78250 H
atom 0.80357 4.12538 2.17635 C
atom 0.17656 5.33098 2.19212 C
atom -0.45229 5.90766 1.52593 H
