lattice_vector 8.516859 0.0 0.0
lattice_vector 0.0 13.924541 0.0
lattice_vector -3.249958 0.0 2.896205
atom -0.26555 7.36980 0.44145 O
atom -1.09019 6.53286 -0.28835 C
atom -1.38837 6.91868 -1.25480 H
atom -1.30383 5.40986 0.44656 C
atom -1.84026 4.03636 0.82240 C
atom -1.49845 3.20718 0.18958 H
atom -2.93037 3.96854 0.93156 H
atom -1.04757 4.19534 2.18741 C
atom -0.25053 3.45662 2.34244 H
atom -1.68138 4.22196 3.08319 H
atom -0.59217 5.55179 1.66927 C
atom 0.03483 6.75724 1.64439 C
atom 0.67985 7.33036 2.29808 H
atom 5.53245 14.33207 2.45476 O
atom 6.35709 13.49513 3.18455 C
atom 6.65527 13.88095 4.15100 H
atom 6.57073 12.37214 2.44965 C
atom 7.10716 10.99863 2.07381 C
atom 6.76535 10.16945 2.70663 H
atom 8.19727 10.93081 1.96464 H
atom 6.31447 11.15761 0.70879 C
atom 5.51744 10.41889 0.55376 H
atom 6.94828 11.18423 -0.18699 H
atom 5.85907 12.51406 1.22693 C
atom 5.23207 13.71951 1.25181 C
atom 4.58706 14.29263 0.59812 H
