lattice_vector 6.18295 0.0 0.0
lattice_vector 4.0666105347972673e-16 6.641278999999999 0.0
lattice_vector 4.194992708045483e-16 4.194992708045483e-16 6.850943
atom 3.36335 0.00000 4.79734 C
atom 4.41562 0.00000 3.87595 C
atom 4.14373 0.00000 2.50404 C
atom 2.81960 0.00000 2.05361 C
atom 1.76733 0.00000 2.97500 C
atom 2.03922 0.00000 4.34691 C
atom 3.57553 0.00000 5.86792 H
atom 5.44881 0.00000 4.22764 H
atom 4.96470 0.00000 1.78488 H
atom 2.60742 0.00000 0.98302 H
atom 0.73414 0.00000 2.62330 H
atom 1.21825 0.00000 5.06606 H
atom 3.36335 3.32064 2.05361 C
atom 4.41562 3.32064 2.97500 C
atom 4.14373 3.32064 4.34691 C
atom 2.81960 3.32064 4.79734 C
atom 1.76733 3.32064 3.87595 C
atom 2.03922 3.32064 2.50404 C
atom 3.57553 3.32064 0.98302 H
atom 5.44881 3.32064 2.62330 H
atom 4.96470 3.32064 5.06606 H
atom 2.60742 3.32064 5.86792 H
atom 0.73414 3.32064 4.22764 H
atom 1.21825 3.32064 1.78488 H
