lattice_vector 6.568388797286897 4.352981556664298e-16 0.0
lattice_vector -3.2800262247130534 5.694819590601128 1.6543612251060553e-24
lattice_vector 1.1091627432420556e-08 -6.40464541035839e-09 7.28541228
atom 2.21833 2.79838 0.71257 C
atom 3.53146 3.27255 0.71257 C
atom 4.59873 2.37241 0.71257 C
atom 4.35291 0.99805 0.71257 C
atom 3.03978 0.52387 0.71257 C
atom 1.97251 1.42402 0.71257 C
atom 1.38537 3.50238 0.71257 H
atom 3.72459 4.34595 0.71257 H
atom 5.62479 2.74196 0.71257 H
atom 5.18587 0.29404 0.71257 H
atom 2.84666 -0.54952 0.71257 H
atom 0.94646 1.05447 0.71257 H
atom 3.53050 0.52385 4.35528 C
atom 4.59840 1.42316 4.35528 C
atom 4.35343 2.79768 4.35528 C
atom 3.04059 3.27281 4.35528 C
atom 1.97269 2.37350 4.35528 C
atom 2.21767 0.99898 4.35528 C
atom 3.72281 -0.54969 4.35528 H
atom 5.62421 1.05288 4.35528 H
atom 5.18681 3.50117 4.35528 H
atom 2.84828 4.34635 4.35528 H
atom 0.94688 2.74377 4.35528 H
atom 1.38428 0.29549 4.35528 H
