# 
# This is the geometry file that corresponds to the current relaxation step.
# If you do not want this file to be written, set the "write_restart_geometry" flag to .false.
#  aims_uuid : EBC56769-2C3D-41CB-A799-356C42336CDA                                
# 
lattice_vector      6.57603956     -0.00151113     -0.00000000
lattice_vector     -3.28322951      5.68894853     -0.00000001
lattice_vector      0.00000000     -0.00000000      7.28541228
atom       0.24931074      5.16640675      0.71257364 C
atom       1.31637516      4.26611093      0.71257364 C
atom       1.07023272      2.89179546      0.71257364 C
atom      -0.24298653      2.41772552      0.71257364 C
atom      -1.31005216      3.31802346      0.71257364 C
atom      -1.06391035      4.69233642      0.71257364 C
atom       0.44269532      6.23973916      0.71257329 H
atom       2.34259136      4.63537579      0.71257329 H
atom       1.90317920      2.18784240      0.71257329 H
atom      -0.43638412      1.34439556      0.71257328 H
atom      -2.33626557      2.94875105      0.71257329 H
atom      -1.89685272      5.39629424      0.71257330 H
atom      -1.06478936      2.89299534      4.35528273 C
atom       0.24791245      2.41759728      4.35528273 C
atom       1.31594697      3.31683179      4.35528273 C
atom       1.07123901      4.69138522      4.35528273 C
atom      -0.24146159      5.16678262      4.35528273 C
atom      -1.30949697      4.26754662      4.35528273 C
atom      -1.89845821      2.18981900      4.35528308 H
atom       0.43996294      1.34405086      4.35528309 H
atom       2.34181543      2.94667267      4.35528307 H
atom       1.90490953      5.39455956      4.35528307 H
atom      -0.43351907      6.24032768      4.35528309 H
atom      -2.33536263      4.63771344      4.35528308 H
