lattice_vector 10.20543 0.0 0.0
lattice_vector 0.0 9.494039 0.0
lattice_vector 3.388371 0.0 2.867537
atom 3.26949 5.96752 2.01015 O
atom 3.01198 4.60861 2.02283 C
atom 2.91495 4.17386 3.00943 H
atom 2.95003 4.18171 0.73413 C
atom 2.78957 3.23150 -0.44354 C
atom 1.79678 2.77553 -0.54978 H
atom 3.54856 2.44229 -0.52066 H
atom 3.04323 4.48672 -1.38002 C
atom 2.19772 4.75286 -2.02753 H
atom 3.95021 4.42196 -1.99487 H
atom 3.17590 5.30700 -0.10512 C
atom 3.36897 6.38745 0.69626 C
atom 3.57069 7.44351 0.57031 H
atom 10.32431 10.71454 0.85739 O
atom 10.58182 9.35563 0.84471 C
atom 10.67885 8.92088 -0.14189 H
atom 10.64377 8.92873 2.13341 C
atom 10.80423 7.97852 3.31108 C
atom 11.79702 7.52255 3.41732 H
atom 10.04525 7.18931 3.38819 H
atom 10.55057 9.23374 4.24755 C
atom 11.39609 9.49988 4.89507 H
atom 9.64360 9.16898 4.86240 H
atom 10.41790 10.05402 2.97265 C
atom 10.22483 11.13447 2.17128 C
atom 10.02311 12.19053 2.29723 H
