lattice_vector 6.642932843717582 1.734723475976807e-18 0.0
lattice_vector -3.3212147219470136 5.7671192318493505 0.0
lattice_vector 4.490083870190325e-16 7.767207901764552e-16 7.33286344
atom 0.00026 1.39609 1.49954 C
atom 1.20918 0.69788 1.49954 C
atom 1.20892 -0.69822 1.49954 C
atom -0.00025 -1.39609 1.49954 C
atom -1.20917 -0.69788 1.49954 C
atom -1.20891 0.69822 1.49954 C
atom 0.00046 2.48647 1.49954 H
atom 2.15347 1.24300 1.49954 H
atom 2.15301 -1.24363 1.49954 H
atom -0.00045 -2.48647 1.49954 H
atom -2.15346 -1.24300 1.49954 H
atom -2.15300 1.24363 1.49954 H
atom -1.20892 0.69822 5.16597 C
atom 0.00025 1.39609 5.16597 C
atom 1.20917 0.69788 5.16597 C
atom 1.20891 -0.69822 5.16597 C
atom -0.00026 -1.39609 5.16597 C
atom -1.20918 -0.69788 5.16597 C
atom -2.15301 1.24363 5.16597 H
atom 0.00045 2.48647 5.16597 H
atom 2.15346 1.24300 5.16597 H
atom 2.15300 -1.24363 5.16597 H
atom -0.00046 -2.48647 5.16597 H
atom -2.15347 -1.24300 5.16597 H
