lattice_vector 14.86733 0.0 0.0
lattice_vector 0.0 6.416344 0.0
lattice_vector 2.9261 0.0 2.521554
atom 4.16317 1.89434 2.05878 O
atom 3.97928 3.26501 2.03489 C
atom 3.76816 3.71185 2.99799 H
atom 4.12217 3.68475 0.75028 C
atom 4.17570 4.63250 -0.43902 C
atom 4.98039 5.37854 -0.41174 H
atom 3.23343 5.14101 -0.68071 H
atom 4.48701 3.35795 -1.33093 C
atom 5.46996 3.37031 -1.81947 H
atom 3.72247 3.13035 -2.08493 H
atom 4.40264 2.54261 -0.04878 C
atom 4.42268 1.45955 0.77187 C
atom 4.58371 0.39342 0.67575 H
atom 13.63026 -1.31383 0.46277 O
atom 13.81415 0.05684 0.48666 C
atom 14.02527 0.50368 -0.47644 H
atom 13.67126 0.47658 1.77128 C
atom 13.61773 1.42433 2.96057 C
atom 12.81304 2.17037 2.93329 H
atom 14.56000 1.93284 3.20227 H
atom 13.30642 0.14978 3.85249 C
atom 12.32347 0.16214 4.34102 H
atom 14.07096 -0.07782 4.60648 H
atom 13.39079 -0.66557 2.57033 C
atom 13.37075 -1.74862 1.74969 C
atom 13.20972 -2.81475 1.84580 H
