lattice_vector 5.99364 0.0 0.0
lattice_vector 0.0 6.333836 0.0
lattice_vector 6.305577 0.0 5.236982
atom 3.31643 5.99573 -0.61540 O
atom 2.38187 5.18911 -1.23915 C
atom 2.08443 5.51835 -2.22654 H
atom 2.08643 4.16282 -0.39875 C
atom 1.42992 2.89078 0.11744 C
atom 1.65963 1.97853 -0.44812 H
atom 0.34400 2.94690 0.26742 H
atom 2.29051 3.08436 1.43608 C
atom 3.01451 2.28279 1.63179 H
atom 1.70031 3.25488 2.34571 H
atom 2.85885 4.33558 0.78241 C
atom 3.60294 5.46221 0.62791 C
atom 4.32913 6.01959 1.20567 H
atom 6.46922 0.33810 2.00309 O
atom 5.53466 1.14472 1.37934 C
atom 5.23722 0.81548 0.39195 H
atom 5.23921 2.17102 2.21974 C
atom 4.58271 3.44305 2.73593 C
atom 4.81242 4.35531 2.17037 H
atom 3.49679 3.38694 2.88591 H
atom 5.44330 3.24948 4.05457 C
atom 6.16730 4.05105 4.25028 H
atom 4.85310 3.07895 4.96420 H
atom 6.01164 1.99826 3.40091 C
atom 6.75573 0.87162 3.24640 C
atom 7.48191 0.31425 3.82416 H
