title geometry
lattice_vector 5.993640 0.000000 0.000000
lattice_vector 0.000000 6.333836 0.000000
lattice_vector 6.305577 0.000000 5.236982
0.000000 0.000000 0.000000 2.574481 4.462032 0.094047 /home/trose/genarris_mpi4py/merged_4_17_2019/tests/full_diverse_workflow/harris_single_molecule_prep_aims_dir/geometry
-150.603087 -48.598045 35.587883 5.727269 1.871801 2.712537 /home/trose/genarris_mpi4py/merged_4_17_2019/tests/full_diverse_workflow/harris_single_molecule_prep_aims_dir/geometry
