lattice_vector 18.576693 0.0 0.0
lattice_vector 0.0 3.681043 0.0
lattice_vector 4.98678 0.0 3.004703
atom 9.73151 2.50698 3.49774 O
atom 8.43695 2.74451 3.92297 C
atom 8.35753 3.23603 4.88416 H
atom 7.58981 2.27272 2.97081 C
atom 6.28066 1.93524 2.27240 C
atom 5.66712 2.79669 1.97860 H
atom 5.64143 1.20966 2.79181 H
atom 7.16168 1.32291 1.10375 C
atom 7.05434 1.82982 0.13601 H
atom 7.03214 0.24360 0.95160 H
atom 8.37950 1.72528 1.92280 C
atom 9.68531 1.87923 2.26634 C
atom 10.65179 1.64567 1.83833 H
atom 13.83196 2.50698 -0.49303 O
atom 15.12652 2.74451 -0.91826 C
atom 15.20595 3.23603 -1.87945 H
atom 15.97367 2.27272 0.03389 C
atom 17.28281 1.93524 0.73230 C
atom 17.89635 2.79669 1.02610 H
atom 17.92204 1.20966 0.21289 H
atom 16.40179 1.32291 1.90095 C
atom 16.50914 1.82982 2.86869 H
atom 16.53133 0.24360 2.05310 H
atom 15.18397 1.72528 1.08190 C
atom 13.87816 1.87923 0.73836 C
atom 12.91169 1.64567 1.16637 H
