lattice_vector 9.94659 0.0 0.0
lattice_vector 0.0 3.735295 0.0
lattice_vector 8.919211 0.0 6.981065
atom 12.29751 1.80009 6.03307 O
atom 12.02662 2.41257 4.82286 C
atom 10.97580 2.57885 4.62307 H
atom 13.21003 2.64433 4.19623 C
atom 14.18494 3.10658 3.12319 C
atom 14.20985 4.18911 2.94333 H
atom 14.10314 2.59188 2.15714 H
atom 15.34260 2.56683 4.06413 C
atom 16.03599 3.33766 4.42475 H
atom 15.92624 1.73896 3.64123 H
atom 14.24759 2.16190 5.04025 C
atom 13.66669 1.65002 6.15711 C
atom 13.99113 1.17768 7.07551 H
atom 7.83790 1.93521 2.54254 O
atom 7.56702 1.32273 1.33233 C
atom 6.51619 1.15645 1.13254 H
atom 8.75042 1.09097 0.70569 C
atom 9.72533 0.62872 -0.36734 C
atom 9.75025 -0.45381 -0.54720 H
atom 9.64353 1.14341 -1.33340 H
atom 10.88300 1.16847 0.57360 C
atom 11.57638 0.39764 0.93422 H
atom 11.46663 1.99634 0.15070 H
atom 9.78798 1.57340 1.54971 C
atom 9.20708 2.08528 2.66658 C
atom 9.53152 2.55762 3.58498 H
