lattice_vector 18.711168 0.0 0.0
lattice_vector 0.0 5.43034 0.0
lattice_vector 2.306942 0.0 2.664955
atom 15.16246 3.98777 -0.22799 O
atom 15.02486 5.35969 -0.11831 C
atom 15.10689 5.90056 -1.05240 H
atom 14.81548 5.65657 1.19122 C
atom 14.56894 6.49255 2.43857 C
atom 13.61316 7.03170 2.46368 H
atom 15.37288 7.19034 2.70619 H
atom 14.57937 5.12916 3.24972 C
atom 13.63056 4.88358 3.74414 H
atom 15.39131 5.04018 3.98299 H
atom 14.82337 4.43448 1.91791 C
atom 15.03729 3.42785 1.03033 C
atom 15.12918 2.34965 1.05959 H
atom 5.85566 3.98777 2.89294 O
atom 5.99325 5.35969 2.78326 C
atom 5.91122 5.90056 3.71736 H
atom 6.20263 5.65657 1.47374 C
atom 6.44917 6.49255 0.22638 C
atom 7.40495 7.03170 0.20127 H
atom 5.64523 7.19034 -0.04123 H
atom 6.43874 5.12916 -0.58476 C
atom 7.38755 4.88358 -1.07919 H
atom 5.62680 5.04018 -1.31803 H
atom 6.19474 4.43448 0.74705 C
atom 5.98082 3.42785 1.63463 C
atom 5.88893 2.34965 1.60537 H
