title geometry
lattice_vector 18.711168 0.000000 0.000000
lattice_vector 0.000000 5.430340 0.000000
lattice_vector 2.306942 0.000000 2.664955
123.539358 -41.520288 101.808036 14.862075 4.917061 1.337969 /home/trose/genarris_mpi4py/merged_4_17_2019/tests/full_diverse_workflow/harris_single_molecule_prep_aims_dir/geometry
56.460246 -138.479439 -78.192056 6.156037 4.917061 1.326977 /home/trose/genarris_mpi4py/merged_4_17_2019/tests/full_diverse_workflow/harris_single_molecule_prep_aims_dir/geometry
