lattice_vector 7.879288 0.0 0.0
lattice_vector 0.0 4.898562 0.0
lattice_vector -3.950447 0.0 5.559214
atom -2.39451 2.22390 7.60595 O
atom -2.08189 1.38063 6.55510 C
atom -1.89445 0.35267 6.83787 H
atom -2.09900 2.11312 5.41054 C
atom -1.98424 2.43970 3.92875 C
atom -2.71555 1.94283 3.27826 H
atom -0.98450 2.31409 3.49331 H
atom -2.35346 3.93288 4.31735 C
atom -3.29621 4.29740 3.88916 H
atom -1.56508 4.66747 4.10834 H
atom -2.43136 3.45100 5.75872 C
atom -2.60733 3.49545 7.10554 C
atom -2.86073 4.24032 7.84903 H
atom 6.32335 -0.22538 -2.04674 O
atom 6.01073 -1.06865 -0.99588 C
atom 5.82330 -2.09661 -1.27865 H
atom 6.02784 -0.33616 0.14867 C
atom 5.91308 -0.00958 1.63047 C
atom 6.64439 -0.50645 2.28095 H
atom 4.91334 -0.13519 2.06591 H
atom 6.28230 1.48360 1.24187 C
atom 7.22505 1.84811 1.67006 H
atom 5.49393 2.21819 1.45088 H
atom 6.36020 1.00172 -0.19951 C
atom 6.53617 1.04617 -1.54633 C
atom 6.78958 1.79104 -2.28981 H
