lattice_vector 17.051853 0.0 0.0
lattice_vector 0.0 4.785017 0.0
lattice_vector -4.042829 0.0 3.376179
atom 9.79207 -1.13205 3.17614 O
atom 9.78176 -0.37025 2.02172 C
atom 10.38761 -0.76099 1.21422 H
atom 8.97684 0.70366 2.23540 C
atom 8.23548 2.00332 1.95828 C
atom 7.46952 1.95134 1.17378 H
atom 8.87053 2.87894 1.77157 H
atom 7.67321 1.89764 3.43801 C
atom 6.58322 1.78705 3.50655 H
atom 7.98670 2.71117 4.10490 H
atom 8.47180 0.60809 3.56108 C
atom 8.98340 -0.52141 4.11726 C
atom 8.91933 -1.03852 5.06611 H
atom 3.21695 -1.13205 0.20004 O
atom 3.22726 -0.37025 1.35445 C
atom 2.62142 -0.76099 2.16196 H
atom 4.03218 0.70366 1.14078 C
atom 4.77355 2.00332 1.41789 C
atom 5.53950 1.95134 2.20240 H
atom 4.13850 2.87894 1.60461 H
atom 5.33581 1.89764 -0.06183 C
atom 6.42580 1.78705 -0.13037 H
atom 5.02232 2.71117 -0.72872 H
atom 4.53723 0.60809 -0.18490 C
atom 4.02563 -0.52141 -0.74108 C
atom 4.08969 -1.03852 -1.68993 H
