lattice_vector 11.966353 0.0 0.0
lattice_vector 0.0 3.881217 0.0
lattice_vector 4.572259 0.0 6.321663
atom 7.65547 1.24970 4.57415 O
atom 7.10230 1.47378 3.32638 C
atom 7.64358 2.17983 2.70969 H
atom 5.98372 0.70934 3.22039 C
atom 4.72865 0.10129 2.61160 C
atom 4.89070 -0.52729 1.72648 H
atom 3.91755 0.80880 2.39615 H
atom 4.56265 -0.70135 3.96995 C
atom 4.62673 -1.79240 3.86754 H
atom 3.65699 -0.45417 4.53875 H
atom 5.83583 -0.01108 4.43724 C
atom 6.86863 0.33496 5.24992 C
atom 7.21372 0.08576 6.24523 H
atom 8.88314 1.24970 1.74752 O
atom 9.43631 1.47378 2.99528 C
atom 8.89504 2.17983 3.61198 H
atom 10.55490 0.70934 3.10128 C
atom 11.80996 0.10129 3.71006 C
atom 11.64792 -0.52729 4.59519 H
atom 12.62106 0.80880 3.92552 H
atom 11.97597 -0.70135 2.35171 C
atom 11.91189 -1.79240 2.45412 H
atom 12.88162 -0.45417 1.78291 H
atom 10.70278 -0.01108 1.88442 C
atom 9.66998 0.33496 1.07174 C
atom 9.32489 0.08576 0.07643 H
