title geometry
lattice_vector 11.966353 0.000000 0.000000
lattice_vector 0.000000 3.881217 0.000000
lattice_vector 4.572259 0.000000 6.321663
24.098841 -38.126604 -66.510863 6.121470 0.459350 3.919741 /home/trose/genarris_mpi4py/merged_4_17_2019/tests/full_diverse_workflow/harris_single_molecule_prep_aims_dir/geometry
155.900718 -141.873692 113.488640 10.417144 0.459350 2.401913 /home/trose/genarris_mpi4py/merged_4_17_2019/tests/full_diverse_workflow/harris_single_molecule_prep_aims_dir/geometry
