title geometry
lattice_vector 9.496527 0.000000 0.000000
lattice_vector 0.000000 5.889932 0.000000
lattice_vector 5.638676 0.000000 4.344224
-167.856136 -81.607741 87.720988 8.719447 3.937706 -0.272734 /home/trose/genarris_mpi4py/merged_4_17_2019/tests/full_diverse_workflow/harris_single_molecule_prep_aims_dir/geometry
-144.497635 -61.382214 133.222916 11.538785 1.952222 1.899378 /home/trose/genarris_mpi4py/merged_4_17_2019/tests/full_diverse_workflow/harris_single_molecule_prep_aims_dir/geometry
