lattice_vector 5.148988 0.0 0.0
lattice_vector 0.0 7.024547 0.0
lattice_vector 6.504976 0.0 6.163369
atom 9.15286 3.74019 2.03475 O
atom 8.52275 3.30830 3.18781 C
atom 7.95941 2.39014 3.08094 H
atom 8.80097 4.19862 4.17612 C
atom 8.79588 4.83968 5.55617 C
atom 9.26915 4.25001 6.35187 H
atom 7.81754 5.18794 5.91174 H
atom 9.71696 5.97392 4.93811 C
atom 10.72013 6.03954 5.37895 H
atom 9.26806 6.97557 4.93498 H
atom 9.62769 5.21433 3.62248 C
atom 9.82962 4.91379 2.31261 C
atom 10.36215 5.34152 1.47279 H
atom 5.90038 3.28435 -1.04693 O
atom 5.27026 3.71625 0.10612 C
atom 4.70692 4.63441 -0.00075 H
atom 5.54849 2.82592 1.09443 C
atom 5.54339 2.18487 2.47449 C
atom 6.01666 2.77453 3.27018 H
atom 4.56505 1.83661 2.83006 H
atom 6.46448 1.05063 1.85643 C
atom 7.46765 0.98500 2.29727 H
atom 6.01557 0.04897 1.85330 H
atom 6.37520 1.81022 0.54079 C
atom 6.57714 2.11075 -0.76908 C
atom 7.10966 1.68303 -1.60889 H
