lattice_vector 35.355442 0.0 0.0
lattice_vector 0.0 3.076286 0.0
lattice_vector 4.706295 0.0 3.131468
atom 32.88337 1.53403 0.55277 O
atom 31.52874 1.29614 0.69939 C
atom 30.91492 1.64448 -0.12139 H
atom 31.34054 0.66268 1.88689 C
atom 30.61138 -0.01451 3.03809 C
atom 30.10422 -0.95504 2.78701 H
atom 29.91301 0.62313 3.59537 H
atom 32.03262 -0.19247 3.72021 C
atom 32.34367 -1.23529 3.86436 H
atom 32.15417 0.34512 4.66945 H
atom 32.61450 0.50191 2.49747 C
atom 33.54256 1.04198 1.66447 C
atom 34.61662 1.17657 1.65300 H
atom 7.17837 1.53403 2.57870 O
atom 8.53300 1.29614 2.43208 C
atom 9.14682 1.64448 3.25286 H
atom 8.72120 0.66268 1.24458 C
atom 9.45035 -0.01451 0.09338 C
atom 9.95752 -0.95504 0.34446 H
atom 10.14872 0.62313 -0.46390 H
atom 8.02911 -0.19247 -0.58874 C
atom 7.71807 -1.23529 -0.73289 H
atom 7.90757 0.34512 -1.53798 H
atom 7.44724 0.50191 0.63400 C
atom 6.51917 1.04198 1.46699 C
atom 5.44512 1.17657 1.47847 H
