lattice_vector 13.566267 0.0 0.0
lattice_vector 0.0 6.544241 0.0
lattice_vector -1.735783 0.0 2.502466
atom 1.89201 7.17810 1.92128 O
atom 1.07671 6.42719 1.09391 C
atom 0.78057 6.92163 0.17760 H
atom 0.86726 5.22456 1.69111 C
atom 0.33850 3.81315 1.90058 C
atom 0.68908 3.06593 1.17699 H
atom -0.75164 3.72617 1.99493 H
atom 1.12344 3.81620 3.27926 C
atom 1.92479 3.06943 3.35123 H
atom 0.48513 3.73378 4.16842 H
atom 1.57199 5.22682 2.92601 C
atom 2.19078 6.43080 3.04592 C
atom 2.82864 6.92749 3.76581 H
atom 9.93847 7.17810 0.58119 O
atom 10.75377 6.42719 1.40856 C
atom 11.04991 6.92163 2.32487 H
atom 10.96322 5.22456 0.81136 C
atom 11.49199 3.81315 0.60189 C
atom 11.14141 3.06593 1.32548 H
atom 12.58212 3.72617 0.50754 H
atom 10.70704 3.81620 -0.77679 C
atom 9.90569 3.06943 -0.84876 H
atom 11.34535 3.73378 -1.66595 H
atom 10.25850 5.22682 -0.42354 C
atom 9.63971 6.43080 -0.54346 C
atom 9.00184 6.92749 -1.26335 H
