lattice_vector 5.933538 0.0 0.0
lattice_vector 3.979391802085393e-16 6.4988399999999995 0.0
lattice_vector 3.979391802085393e-16 3.979391802085393e-16 6.4988399999999995
atom -0.00000 0.36196 -1.35096 C
atom -0.00000 -0.98901 -0.98901 C
atom -0.00000 -1.35096 0.36196 C
atom 0.00000 -0.36196 1.35096 C
atom 0.00000 0.98901 0.98901 C
atom 0.00000 1.35096 -0.36196 C
atom -0.00000 0.64452 -2.40516 H
atom -0.00000 -1.76075 -1.76075 H
atom -0.00000 -2.40516 0.64452 H
atom 0.00000 -0.64452 2.40516 H
atom 0.00000 1.76075 1.76075 H
atom 0.00000 2.40516 -0.64452 H
atom 2.96677 1.35096 0.36196 C
atom 2.96677 0.98901 -0.98901 C
atom 2.96677 -0.36196 -1.35096 C
atom 2.96677 -1.35096 -0.36196 C
atom 2.96677 -0.98901 0.98901 C
atom 2.96677 0.36196 1.35096 C
atom 2.96677 2.40516 0.64452 H
atom 2.96677 1.76075 -1.76075 H
atom 2.96677 -0.64452 -2.40516 H
atom 2.96677 -2.40516 -0.64452 H
atom 2.96677 -1.76075 1.76075 H
atom 2.96677 0.64452 2.40516 H
