lattice_vector 9.01104093 -1.13473841 0.76216203
lattice_vector -0.3878076 6.89109736 -0.36218996
lattice_vector 6.61724031 0.97733245 9.97929749
atom 13.33535 3.22632 10.29560 C
atom 13.90617 4.02699 10.93264 N
atom 12.65754 2.23216 9.57618 C
atom 11.33627 2.64340 8.51634 S
atom 11.10070 0.99160 8.12010 C
atom 11.99813 0.15219 8.76670 C
atom 12.89787 0.86501 9.60063 C
atom 12.05739 -1.19642 8.66977 O
atom 10.32181 0.72594 7.41435 H
atom 13.69368 0.38762 10.16840 H
atom 11.64221 -1.49636 7.81714 H
atom 4.79063 7.97286 4.96925 C
atom 4.17816 8.62268 4.20980 N
atom 5.53851 7.14171 5.81329 C
atom 6.89929 7.76503 6.70909 S
atom 7.27340 6.19300 7.28777 C
atom 6.38369 5.22737 6.83432 C
atom 5.38202 5.77332 5.99042 C
atom 6.41532 3.90621 7.11639 O
atom 8.13914 6.04998 7.92388 H
atom 4.58102 5.18824 5.54269 H
atom 7.00065 3.74399 7.90497 H
atom 1.90421 3.50735 0.08384 C
atom 1.33340 2.70666 -0.55314 N
atom 2.58227 4.50169 0.80281 C
atom 3.90362 4.09044 1.86258 S
atom 4.13937 5.74222 2.25861 C
atom 3.24191 6.58166 1.61210 C
atom 2.34205 5.86887 0.77831 C
atom 3.18260 7.93023 1.70917 O
atom 4.91823 6.00806 2.96433 H
atom 1.54615 6.34625 0.21064 H
atom 3.59951 8.23023 2.56111 H
atom 10.45100 -1.23855 5.41048 C
atom 11.06666 -1.88897 6.16693 N
atom 9.70263 -0.40781 4.56638 C
atom 8.34150 -1.03157 3.67132 S
atom 7.96679 0.54037 3.09257 C
atom 8.85684 1.50627 3.54520 C
atom 9.85874 0.96047 4.38887 C
atom 8.82560 2.82729 3.26188 O
atom 7.10093 0.68280 2.45646 H
atom 10.65974 1.54596 4.83610 H
atom 8.23896 2.98802 2.47453 H
