lattice_vector 6.84753581 -0.3009265 -0.14526829
lattice_vector 1.22324649 7.90948042 0.00481933
lattice_vector -14.33882194 0.27267596 10.93846936
atom -12.25630 5.21671 8.00322 C
atom -13.10672 5.11138 7.20504 N
atom -11.21279 5.36442 8.93027 C
atom -11.30114 6.55769 10.21038 S
atom -9.72150 6.13010 10.74839 C
atom -9.15080 5.13242 9.97839 C
atom -10.00693 4.68056 8.94388 C
atom -7.92092 4.57656 10.13580 O
atom -9.29590 6.63120 11.61234 H
atom -9.74352 3.89024 8.24294 H
atom -7.40074 5.07403 10.79377 H
atom -2.12407 -0.01107 7.97405 C
atom -1.39886 -0.62135 8.66268 N
atom -3.00573 0.72694 7.16563 C
atom -2.39892 1.92245 6.04683 S
atom -3.99493 2.30761 5.53668 C
atom -4.95411 1.54360 6.18444 C
atom -4.38776 0.63744 7.12126 C
atom -6.28429 1.59149 5.98002 O
atom -4.16154 3.04259 4.75594 H
atom -4.97255 -0.06471 7.71218 H
atom -6.47564 2.26293 5.27254 H
atom 5.98847 2.66697 2.79336 C
atom 6.84151 2.77459 3.58855 N
atom 4.94312 2.51487 1.86892 C
atom 5.03255 1.32114 0.58917 S
atom 3.45353 1.74866 0.05024 C
atom 2.88128 2.74541 0.82050 C
atom 3.73681 3.19784 1.85497 C
atom 1.65091 3.29992 0.66244 O
atom 3.02813 1.24654 -0.81324 H
atom 3.47336 3.98857 2.55540 H
atom 1.13116 2.80031 0.00573 H
atom -4.14623 7.89473 2.82394 C
atom -4.87210 8.50446 2.13551 N
atom -3.26392 7.15716 3.63178 C
atom -3.86836 5.95930 4.74974 S
atom -2.27170 5.57560 5.25843 C
atom -1.31365 6.34083 4.61050 C
atom -1.88173 7.24728 3.67502 C
atom 0.01695 6.29318 4.81266 O
atom -2.10519 4.84008 6.03849 H
atom -1.29813 7.94966 3.08343 H
atom 0.20968 5.62176 5.51974 H
