lattice_vector 6.822001 0.0 0.0
lattice_vector 0.0 8.183311 0.0
lattice_vector 0.337466 0.0 3.980531
atom -0.60721 6.30632 1.29998 O
atom -0.44624 5.11243 0.62040 C
atom -1.35797 4.69588 0.21172 H
atom 0.87167 4.78299 0.65825 C
atom 2.14715 3.98932 0.41583 C
atom 2.45231 3.89627 -0.63443 H
atom 2.18074 2.99550 0.88064 H
atom 2.90474 5.12399 1.22544 C
atom 3.64801 5.68337 0.64265 H
atom 3.37262 4.78441 2.15850 H
atom 1.55079 5.80072 1.38259 C
atom 0.62722 6.72126 1.76534 C
atom 0.61596 7.65321 2.31593 H
atom 7.76667 2.21467 2.68055 O
atom 7.60570 1.02078 3.36013 C
atom 8.51744 0.60422 3.76881 H
atom 6.28780 0.69134 3.32228 C
atom 5.01232 -0.10234 3.56470 C
atom 4.70716 -0.19538 4.61496 H
atom 4.97872 -1.09616 3.09989 H
atom 4.25473 1.03234 2.75509 C
atom 3.51146 1.59171 3.33789 H
atom 3.78685 0.69276 1.82203 H
atom 5.60868 1.70906 2.59794 C
atom 6.53225 2.62960 2.21519 C
atom 6.54351 3.56155 1.66460 H
