lattice_vector 5.028603 0.0 0.0
lattice_vector 0.0 12.363783 0.0
lattice_vector -1.085818 0.0 3.642936
atom 1.06834 2.87693 -0.87557 O
atom 1.94272 1.82588 -0.66613 C
atom 1.69984 0.91876 -1.20459 H
atom 2.90521 2.24680 0.19601 C
atom 4.14646 2.20096 1.07505 C
atom 5.09548 2.05309 0.54370 H
atom 4.10285 1.49914 1.91791 H
atom 3.82937 3.70879 1.45294 C
atom 4.59645 4.42962 1.14151 H
atom 3.60020 3.87537 2.51340 H
atom 2.62177 3.59862 0.53348 C
atom 1.49467 3.96277 -0.13278 C
atom 0.87700 4.84706 -0.22410 H
atom 1.06834 9.48685 -0.87557 O
atom 1.94272 10.53790 -0.66613 C
atom 1.69984 11.44502 -1.20459 H
atom 2.90521 10.11698 0.19601 C
atom 4.14646 10.16282 1.07505 C
atom 5.09548 10.31070 0.54370 H
atom 4.10285 10.86465 1.91791 H
atom 3.82937 8.65499 1.45294 C
atom 4.59645 7.93416 1.14151 H
atom 3.60020 8.48842 2.51340 H
atom 2.62177 8.76516 0.53348 C
atom 1.49467 8.40101 -0.13278 C
atom 0.87700 7.51673 -0.22410 H
