title geometry
lattice_vector 5.028603 0.000000 0.000000
lattice_vector 0.000000 12.363783 0.000000
lattice_vector -1.085818 0.000000 3.642936
-76.835297 -45.561547 166.263896 2.556892 2.916806 0.214692 /home/trose/genarris_mpi4py/merged_4_17_2019/tests/full_diverse_workflow/harris_single_molecule_prep_aims_dir/geometry
107.469905 -86.584396 57.355432 2.556892 9.446974 0.214692 /home/trose/genarris_mpi4py/merged_4_17_2019/tests/full_diverse_workflow/harris_single_molecule_prep_aims_dir/geometry
