lattice_vector 15.240799 0.0 0.0
lattice_vector 0.0 6.097105 0.0
lattice_vector -3.799825 0.0 2.533473
atom 3.75254 3.53981 -0.23021 O
atom 2.93074 2.73558 -0.99895 C
atom 2.73342 3.10878 -1.99574 H
atom 2.58647 1.65323 -0.25274 C
atom 1.93131 0.33060 0.11733 C
atom 2.26310 -0.53912 -0.46434 H
atom 0.83398 0.33784 0.14325 H
atom 2.62730 0.48121 1.53500 C
atom 3.35842 -0.30273 1.77144 H
atom 1.93074 0.57810 2.37777 H
atom 3.21147 1.78755 1.01728 C
atom 3.91878 2.94794 1.00858 C
atom 4.54978 3.49836 1.69465 H
atom 7.68843 3.53981 2.76368 O
atom 8.51024 2.73558 3.53243 C
atom 8.70755 3.10878 4.52922 H
atom 8.85450 1.65323 2.78622 C
atom 9.50966 0.33060 2.41615 C
atom 9.17788 -0.53912 2.99781 H
atom 10.60700 0.33784 2.39023 H
atom 8.81368 0.48121 0.99847 C
atom 8.08255 -0.30273 0.76204 H
atom 9.51023 0.57810 0.15570 H
atom 8.22950 1.78755 1.51619 C
atom 7.52220 2.94794 1.52489 C
atom 6.89120 3.49836 0.83882 H
