lattice_vector 3.508568 0.0 0.0
lattice_vector 0.0 4.914109 0.0
lattice_vector 11.400565 0.0 9.745696
atom 8.67087 5.72534 4.32762 O
atom 7.92650 5.27511 3.25230 C
atom 8.01738 5.87326 2.35467 H
atom 7.25997 4.15700 3.64272 C
atom 6.34087 2.94706 3.56022 C
atom 6.65452 2.16349 2.85845 H
atom 5.28034 3.17033 3.38619 H
atom 6.71743 2.66560 5.07544 C
atom 7.24600 1.71900 5.24737 H
atom 5.87408 2.72950 5.77509 H
atom 7.59866 3.90399 5.00025 C
atom 8.46197 4.87517 5.39819 C
atom 9.00166 5.13729 6.29921 H
atom 14.37115 -0.81124 9.20047 O
atom 13.62678 -0.36100 8.12515 C
atom 13.71767 -0.95915 7.22751 H
atom 12.96026 0.75711 8.51556 C
atom 12.04115 1.96705 8.43307 C
atom 12.35480 2.75062 7.73130 H
atom 10.98062 1.74378 8.25904 H
atom 12.41771 2.24851 9.94829 C
atom 12.94628 3.19511 10.12021 H
atom 11.57436 2.18461 10.64794 H
atom 13.29895 1.01012 9.87310 C
atom 14.16225 0.03893 10.27104 C
atom 14.70195 -0.22318 11.17206 H
