lattice_vector 9.084964 0.0 0.0
lattice_vector 0.0 9.137834 0.0
lattice_vector -4.110443 0.0 2.788061
atom 3.23937 2.75161 1.25975 O
atom 2.23637 3.47529 0.64058 C
atom 2.57897 4.32498 0.06398 H
atom 1.04834 2.88920 0.94375 C
atom -0.45415 2.64962 0.96958 C
atom -0.90859 2.39971 0.00218 H
atom -1.05047 3.43964 1.44407 H
atom -0.15206 1.40029 1.89953 C
atom -0.43436 0.43066 1.46925 H
atom -0.57209 1.47174 2.91111 H
atom 1.31929 1.76866 1.77598 C
atom 2.66474 1.70399 1.95605 C
atom 3.36581 1.06848 2.48184 H
atom 1.73515 7.32053 1.52831 O
atom 2.73815 8.04421 2.14749 C
atom 2.39555 8.89390 2.72408 H
atom 3.92618 7.45812 1.84431 C
atom 5.42867 7.21854 1.81848 C
atom 5.88312 6.96863 2.78588 H
atom 6.02499 8.00856 1.34399 H
atom 5.12658 5.96920 0.88854 C
atom 5.40889 4.99958 1.31881 H
atom 5.54661 6.04066 -0.12305 H
atom 3.65523 6.33758 1.01208 C
atom 2.30978 6.27290 0.83201 C
atom 1.60871 5.63739 0.30622 H
