lattice_vector 31.154654 0.0 0.0
lattice_vector 0.0 3.658669 0.0
lattice_vector -4.067139 0.0 2.657113
atom 7.77351 3.53000 1.29030 O
atom 7.02963 2.77595 0.40083 C
atom 7.23469 2.97258 -0.64372 H
atom 6.21323 1.96272 1.12123 C
atom 5.15690 0.90818 1.41729 C
atom 5.40362 -0.11079 1.09224 H
atom 4.14108 1.14873 1.07801 H
atom 5.42581 1.19415 2.95443 C
atom 5.82531 0.33960 3.51581 H
atom 4.56545 1.60226 3.50039 H
atom 6.45536 2.21802 2.49885 C
atom 7.41246 3.17952 2.57846 C
atom 7.93829 3.71367 3.35948 H
atom 19.31401 3.53000 1.36681 O
atom 20.05788 2.77595 2.25629 C
atom 19.85282 2.97258 3.30084 H
atom 20.87428 1.96272 1.53588 C
atom 21.93062 0.90818 1.23983 C
atom 21.68389 -0.11079 1.56487 H
atom 22.94644 1.14873 1.57910 H
atom 21.66171 1.19415 -0.29732 C
atom 21.26221 0.33960 -0.85869 H
atom 22.52206 1.60226 -0.84328 H
atom 20.63215 2.21802 0.15826 C
atom 19.67505 3.17952 0.07865 C
atom 19.14922 3.71367 -0.70237 H
