lattice_vector 4.843018 0.0 0.0
lattice_vector 0.0 13.250547 0.0
lattice_vector -4.982333 0.0 3.467274
atom -2.04885 3.51992 1.45750 O
atom -2.44668 4.57065 2.26421 C
atom -1.78708 5.42887 2.25050 H
atom -3.60710 4.21407 2.87504 C
atom -4.83447 4.31732 3.76860 C
atom -5.55972 5.09131 3.48615 H
atom -4.63032 4.40293 4.84370 H
atom -5.20648 2.85434 3.28055 C
atom -6.14706 2.78465 2.71888 H
atom -5.21393 2.09618 4.07427 H
atom -3.94121 2.90348 2.43645 C
atom -2.97481 2.49899 1.57083 C
atom -2.75869 1.62081 0.97593 H
atom -2.04885 9.73063 1.45750 O
atom -2.44668 8.67989 2.26421 C
atom -1.78708 7.82167 2.25050 H
atom -3.60710 9.03648 2.87504 C
atom -4.83447 8.93323 3.76860 C
atom -5.55972 8.15924 3.48615 H
atom -4.63032 8.84762 4.84370 H
atom -5.20648 10.39621 3.28055 C
atom -6.14706 10.46589 2.71888 H
atom -5.21393 11.15437 4.07427 H
atom -3.94121 10.34707 2.43645 C
atom -2.97481 10.75156 1.57083 C
atom -2.75869 11.62974 0.97593 H
