lattice_vector 14.172924 0.0 0.0
lattice_vector 0.0 2.84946 0.0
lattice_vector -0.884865 0.0 4.221842
atom 4.56847 2.63958 2.93210 O
atom 3.24686 2.96976 3.17180 C
atom 3.06914 3.48049 4.10955 H
atom 2.50921 2.54083 2.11410 C
atom 1.28919 2.28076 1.24264 C
atom 0.78252 3.17660 0.86107 H
atom 0.53618 1.60777 1.67268 H
atom 2.27934 1.59267 0.21161 C
atom 2.34172 2.09041 -0.76479 H
atom 2.09856 0.52219 0.04966 H
atom 3.39688 1.92548 1.18944 C
atom 4.65011 1.99712 1.71016 C
atom 5.64821 1.69279 1.42209 H
atom 8.71959 2.63958 1.28974 O
atom 10.04120 2.96976 1.05005 C
atom 10.21892 3.48049 0.11230 H
atom 10.77885 2.54083 2.10774 C
atom 11.99887 2.28076 2.97920 C
atom 12.50554 3.17660 3.36077 H
atom 12.75188 1.60777 2.54917 H
atom 11.00872 1.59267 4.01023 C
atom 10.94634 2.09041 4.98664 H
atom 11.18950 0.52219 4.17219 H
atom 9.89117 1.92548 3.03240 C
atom 8.63795 1.99712 2.51168 C
atom 7.63985 1.69279 2.79975 H
