title geometry
lattice_vector 4.966753 0.000000 0.000000
lattice_vector 0.000000 12.097572 0.000000
lattice_vector -2.841442 0.000000 3.711060
162.574828 -29.111253 -158.792343 3.205916 9.175226 0.590927 /home/trose/genarris_mpi4py/merged_4_17_2019/tests/full_diverse_workflow/harris_single_molecule_prep_aims_dir/geometry
-156.891130 -78.015805 32.229309 3.205916 2.922343 0.590927 /home/trose/genarris_mpi4py/merged_4_17_2019/tests/full_diverse_workflow/harris_single_molecule_prep_aims_dir/geometry
