lattice_vector 14.350931 0.0 0.0
lattice_vector 0.0 3.714872 0.0
lattice_vector -0.979865 0.0 4.187893
atom 4.35018 1.95395 3.16564 O
atom 3.08987 2.19221 3.68330 C
atom 3.08049 2.60990 4.68192 H
atom 2.17576 1.81810 2.74987 C
atom 0.81920 1.57053 2.10646 C
atom 0.21697 2.46810 1.91539 H
atom 0.18834 0.82421 2.60634 H
atom 1.61297 1.02717 0.84487 C
atom 1.46656 1.61004 -0.07373 H
atom 1.44158 -0.03333 0.61945 H
atom 2.88726 1.33253 1.61867 C
atom 4.21463 1.42471 1.89517 C
atom 5.14751 1.19934 1.39441 H
atom 9.02089 3.81139 1.02226 O
atom 10.28119 4.04964 0.50460 C
atom 10.29058 4.46734 -0.49402 H
atom 11.19531 3.67554 1.43802 C
atom 12.55186 3.42796 2.08144 C
atom 13.15410 4.32554 2.27251 H
atom 13.18273 2.68165 1.58156 H
atom 11.75810 2.88461 3.34302 C
atom 11.90450 3.46748 4.26162 H
atom 11.92948 1.82411 3.56844 H
atom 10.48380 3.18996 2.56922 C
atom 9.15644 3.28215 2.29272 C
atom 8.22356 3.05678 2.79348 H
