title geometry
lattice_vector 7.410071 0.000000 0.000000
lattice_vector 0.000000 6.776623 0.000000
lattice_vector 5.136064 0.000000 3.873187
-19.231278 -75.814197 4.665813 8.976060 1.999463 3.740369 /home/trose/genarris_mpi4py/merged_4_17_2019/tests/full_diverse_workflow/harris_single_molecule_prep_aims_dir/geometry
-14.097462 -33.873951 -106.601961 6.408028 4.777156 1.803776 /home/trose/genarris_mpi4py/merged_4_17_2019/tests/full_diverse_workflow/harris_single_molecule_prep_aims_dir/geometry
