lattice_vector 12.34591 0.0 0.0
lattice_vector 0.0 5.621484 0.0
lattice_vector -1.613391 0.0 3.168109
atom 3.00291 7.38607 2.35390 O
atom 2.12498 6.60488 1.62445 C
atom 1.74404 7.06952 0.72402 H
atom 1.98105 5.41919 2.27273 C
atom 1.48680 4.01092 2.56942 C
atom 1.77927 3.24491 1.83967 H
atom 0.41021 3.91896 2.76267 H
atom 2.39065 4.06088 3.87228 C
atom 3.20253 3.32240 3.89459 H
atom 1.83440 4.00053 4.81663 H
atom 2.79228 5.46349 3.43959 C
atom 3.40739 6.67495 3.46891 C
atom 4.10158 7.19755 4.11453 H
atom 7.72961 7.38607 0.81421 O
atom 8.60754 6.60488 1.54365 C
atom 8.98848 7.06952 2.44409 H
atom 8.75147 5.41919 0.89538 C
atom 9.24572 4.01092 0.59869 C
atom 8.95325 3.24491 1.32843 H
atom 10.32231 3.91896 0.40544 H
atom 8.34187 4.06088 -0.70417 C
atom 7.52999 3.32240 -0.72648 H
atom 8.89812 4.00053 -1.64852 H
atom 7.94024 5.46349 -0.27149 C
atom 7.32512 6.67495 -0.30080 C
atom 6.63094 7.19755 -0.94642 H
