lattice_vector 4.457202 0.0 0.0
lattice_vector 0.0 14.909333 0.0
lattice_vector -0.917327 0.0 4.119003
atom 1.14821 5.97750 3.21210 O
atom 0.42632 5.32989 2.22589 C
atom -0.09796 5.98526 1.54222 H
atom 0.58570 3.99159 2.40020 C
atom 0.43386 2.49722 2.15659 C
atom 0.84789 2.12938 1.20891 H
atom -0.58293 2.10044 2.27311 H
atom 1.37537 2.28369 3.41550 C
atom 2.33090 1.79086 3.19396 H
atom 0.90004 1.76618 4.25877 H
atom 1.43071 3.80033 3.52759 C
atom 1.76212 5.02763 4.00797 C
atom 2.35788 5.42898 4.81778 H
atom 1.14821 8.93184 3.21210 O
atom 0.42632 9.57944 2.22589 C
atom -0.09796 8.92407 1.54222 H
atom 0.58570 10.91775 2.40020 C
atom 0.43386 12.41211 2.15659 C
atom 0.84789 12.77995 1.20891 H
atom -0.58293 12.80890 2.27311 H
atom 1.37537 12.62565 3.41550 C
atom 2.33090 13.11847 3.19396 H
atom 0.90004 13.14315 4.25877 H
atom 1.43071 11.10900 3.52759 C
atom 1.76212 9.88170 4.00797 C
atom 2.35788 9.48035 4.81778 H
