lattice_vector 4.502737 0.0 0.0
lattice_vector 0.0 4.610555 0.0
lattice_vector 12.547325 0.0 11.296244
atom 15.13145 2.64161 9.86760 O
atom 14.59487 2.07156 8.72732 C
atom 14.80958 2.60353 7.80934 H
atom 13.91821 0.95243 9.09681 C
atom 13.07498 -0.30770 8.96805 C
atom 13.53214 -1.12458 8.39488 H
atom 12.05002 -0.15537 8.60594 H
atom 13.20545 -0.45228 10.54252 C
atom 13.73571 -1.35340 10.87692 H
atom 12.25567 -0.38042 11.08803 H
atom 14.03644 0.82211 10.50772 C
atom 14.78185 1.86558 10.95760 C
atom 15.15330 2.22410 11.90907 H
atom 8.85779 1.96894 4.21947 O
atom 8.32121 2.53900 3.07920 C
atom 8.53592 2.00702 2.16122 H
atom 7.64455 3.65813 3.44869 C
atom 6.80131 4.91825 3.31993 C
atom 7.25848 5.73514 2.74676 H
atom 5.77636 4.76592 2.95782 H
atom 6.93179 5.06284 4.89440 C
atom 7.46204 5.96396 5.22880 H
atom 5.98201 4.99097 5.43991 H
atom 7.76277 3.78844 4.85960 C
atom 8.50819 2.74498 5.30948 C
atom 8.87964 2.38645 6.26095 H
