lattice_vector 6.594704 0.0 0.0
lattice_vector 0.0 10.590099 0.0
lattice_vector 3.517155 0.0 3.102005
atom 2.61941 4.30702 3.43794 O
atom 3.83412 3.68816 3.20423 C
atom 4.60081 3.90057 3.93830 H
atom 3.71826 2.95352 2.06681 C
atom 4.11130 2.02682 0.92563 C
atom 4.36354 0.99933 1.21799 H
atom 4.89699 2.40517 0.25899 H
atom 2.63369 2.21390 0.37921 C
atom 2.03507 1.29409 0.35446 H
atom 2.56784 2.70276 -0.60136 H
atom 2.39353 3.12006 1.57796 C
atom 1.74002 3.95141 2.43158 C
atom 0.75134 4.38373 2.51771 H
atom 2.61941 6.28308 3.43794 O
atom 3.83412 6.90194 3.20423 C
atom 4.60081 6.68953 3.93830 H
atom 3.71826 7.63658 2.06681 C
atom 4.11130 8.56328 0.92563 C
atom 4.36354 9.59076 1.21799 H
atom 4.89699 8.18493 0.25899 H
atom 2.63369 8.37620 0.37921 C
atom 2.03507 9.29601 0.35446 H
atom 2.56784 7.88734 -0.60136 H
atom 2.39353 7.47004 1.57796 C
atom 1.74002 6.63869 2.43158 C
atom 0.75134 6.20637 2.51771 H
