lattice_vector 5.636079 0.0 0.0
lattice_vector 0.0 5.636079 0.0
lattice_vector 0.0 0.0 8.419221
atom 1.15894 3.60085 4.20961 C
atom 0.57949 3.20946 5.42092 C
atom -0.57949 2.42662 5.42092 C
atom -1.15894 2.03522 4.20961 C
atom -0.57949 2.42662 2.99831 C
atom 0.57949 3.20946 2.99831 C
atom 2.06335 4.21175 4.20961 H
atom 1.03181 3.51498 6.36603 H
atom -1.03181 2.12110 6.36603 H
atom -2.06335 1.42433 4.20961 H
atom -1.03181 2.12110 2.05319 H
atom 1.03181 3.51498 2.05319 H
atom 2.03522 1.15894 -0.00000 C
atom 2.42662 0.57949 1.21131 C
atom 3.20946 -0.57949 1.21131 C
atom 3.60085 -1.15894 -0.00000 C
atom 3.20946 -0.57949 -1.21131 C
atom 2.42662 0.57949 -1.21131 C
atom 1.42433 2.06335 -0.00000 H
atom 2.12110 1.03181 2.15642 H
atom 3.51498 -1.03181 2.15642 H
atom 4.21175 -2.06335 -0.00000 H
atom 3.51498 -1.03181 -2.15642 H
atom 2.12110 1.03181 -2.15642 H
