lattice_vector 4.507766 0.0 0.0
lattice_vector 0.0 6.018278 0.0
lattice_vector 7.699745 0.0 7.985422
atom 7.12584 3.40153 4.56300 O
atom 6.28420 2.50743 3.92632 C
atom 5.98173 2.79971 2.92889 H
atom 6.06372 1.46548 4.77046 C
atom 5.51405 0.14301 5.28472 C
atom 5.83973 -0.74907 4.73431 H
atom 4.42425 0.10062 5.40890 H
atom 6.32138 0.42573 6.62082 C
atom 7.11073 -0.30444 6.84172 H
atom 5.69637 0.54909 7.51469 H
atom 6.78849 1.71823 5.96731 C
atom 7.42996 2.90699 5.81818 C
atom 8.08804 3.53341 6.40668 H
atom 3.27597 2.61675 0.57028 O
atom 2.43433 3.51084 -0.06639 C
atom 2.13186 3.21857 -1.06382 H
atom 2.21385 4.55279 0.77775 C
atom 1.66417 5.87527 1.29201 C
atom 1.98985 6.76735 0.74160 H
atom 0.57438 5.91765 1.41619 H
atom 2.47151 5.59255 2.62811 C
atom 3.26085 6.32271 2.84901 H
atom 1.84650 5.46919 3.52197 H
atom 2.93862 4.30005 1.97460 C
atom 3.58008 3.11129 1.82547 C
atom 4.23817 2.48487 2.41397 H
