lattice_vector 24.818533 0.0 0.0
lattice_vector 0.0 4.206425 0.0
lattice_vector -2.876183 0.0 3.001075
atom 4.92114 1.63203 3.91351 O
atom 6.03469 2.33790 3.49534 C
atom 6.96378 2.04007 3.96425 H
atom 5.63095 3.24842 2.57080 C
atom 5.71722 4.37546 1.55204 C
atom 6.30467 4.15351 0.65178 H
atom 6.03670 5.34770 1.94897 H
atom 4.14887 4.21747 1.37258 C
atom 3.83218 3.90672 0.36851 H
atom 3.56427 5.09798 1.66886 H
atom 4.22557 3.10575 2.40893 C
atom 3.81317 2.11228 3.23948 C
atom 2.88014 1.62552 3.49313 H
atom 17.02122 1.63203 -0.91243 O
atom 15.90766 2.33790 -0.49427 C
atom 14.97857 2.04007 -0.96317 H
atom 16.31140 3.24842 0.43028 C
atom 16.22513 4.37546 1.44903 C
atom 15.63768 4.15351 2.34930 H
atom 15.90565 5.34770 1.05210 H
atom 17.79348 4.21747 1.62850 C
atom 18.11017 3.90672 2.63256 H
atom 18.37808 5.09798 1.33221 H
atom 17.71678 3.10575 0.59214 C
atom 18.12918 2.11228 -0.23840 C
atom 19.06221 1.62552 -0.49205 H
