title geometry
lattice_vector 4.778172 0.000000 0.000000
lattice_vector 0.000000 14.007637 0.000000
lattice_vector 4.171553 0.000000 4.034800
0.000000 0.000000 0.000000 1.880151 7.510322 0.557635 /home/trose/genarris_mpi4py/merged_4_17_2019/tests/full_diverse_workflow/harris_single_molecule_prep_aims_dir/geometry
-33.621077 -173.290941 -30.381135 7.069576 0.506504 3.477156 /home/trose/genarris_mpi4py/merged_4_17_2019/tests/full_diverse_workflow/harris_single_molecule_prep_aims_dir/geometry
