title geometry
lattice_vector 15.240799 0.000000 0.000000
lattice_vector 0.000000 6.097105 0.000000
lattice_vector -3.799825 0.000000 2.533473
0.000000 0.000000 0.000000 3.001946 1.942035 0.308098 /home/trose/genarris_mpi4py/merged_4_17_2019/tests/full_diverse_workflow/harris_single_molecule_prep_aims_dir/geometry
-159.843054 -175.365341 -163.185884 8.439029 1.942035 2.225367 /home/trose/genarris_mpi4py/merged_4_17_2019/tests/full_diverse_workflow/harris_single_molecule_prep_aims_dir/geometry
