lattice_vector 3.920999 0.0 0.0
lattice_vector 0.0 6.623974 0.0
lattice_vector -2.316122 0.0 12.957502
atom 1.59642 1.70645 1.42863 O
atom 1.68312 0.59378 2.24567 C
atom 2.37144 -0.16844 1.90359 H
atom 0.84148 0.77880 3.29650 C
atom 0.10292 0.49085 4.59540 C
atom 0.73467 0.41115 5.48948 H
atom -0.57993 -0.36819 4.57020 H
atom -0.60041 1.90043 4.40747 C
atom -0.37595 2.63234 5.19420 H
atom -1.68854 1.85335 4.27112 H
atom 0.21229 2.04277 3.12877 C
atom 0.68862 2.59182 1.98050 C
atom 0.54330 3.50456 1.41694 H
atom 0.00845 1.70645 11.52887 O
atom -0.07824 0.59378 10.71183 C
atom -0.76657 -0.16844 11.05391 H
atom 0.76340 0.77880 9.66100 C
atom 1.50196 0.49085 8.36210 C
atom 0.87021 0.41115 7.46802 H
atom 2.18480 -0.36819 8.38731 H
atom 2.20528 1.90043 8.55003 C
atom 1.98083 2.63234 7.76331 H
atom 3.29341 1.85335 8.68638 H
atom 1.39259 2.04277 9.82874 C
atom 0.91626 2.59182 10.97700 C
atom 1.06158 3.50456 11.54056 H
