lattice_vector 6.390648 0.0 0.0
lattice_vector 0.0 6.133102 0.0
lattice_vector 10.276576 0.0 6.067778
atom 8.29424 1.61412 5.53909 O
atom 7.18434 0.78876 5.54460 C
atom 6.98573 0.30092 6.49030 H
atom 6.62957 0.82411 4.30451 C
atom 5.66589 0.51600 3.16789 C
atom 4.63157 0.84906 3.32312 H
atom 5.65161 -0.52845 2.83059 H
atom 6.54524 1.48771 2.27378 C
atom 6.01733 2.37952 1.91185 H
atom 7.04008 1.00241 1.42264 H
atom 7.41687 1.69615 3.50368 C
atom 8.42886 2.16730 4.27877 C
atom 9.27281 2.83524 4.16299 H
atom 8.37299 4.68067 0.52869 O
atom 9.48288 3.85531 0.52318 C
atom 9.68149 3.36747 -0.42253 H
atom 10.03766 3.89066 1.76327 C
atom 11.00134 3.58256 2.89989 C
atom 12.03565 3.91562 2.74465 H
atom 11.01562 2.53810 3.23719 H
atom 10.12199 4.55427 3.79399 C
atom 10.64989 5.44607 4.15593 H
atom 9.62714 4.06896 4.64514 H
atom 9.25035 4.76270 2.56410 C
atom 8.23836 5.23385 1.78901 C
atom 7.39441 5.90180 1.90479 H
