lattice_vector 22.165468 0.0 0.0
lattice_vector 0.0 4.002392 0.0
lattice_vector 3.930439 0.0 3.130488
atom 19.62786 0.08793 1.62218 O
atom 19.30461 1.02514 0.65767 C
atom 20.14986 1.42815 0.11459 H
atom 17.95491 1.18362 0.66294 C
atom 16.58349 1.71549 0.27325 C
atom 16.26104 1.48367 -0.75004 H
atom 16.42141 2.78516 0.45869 H
atom 15.98943 0.75387 1.38648 C
atom 15.32293 -0.03064 1.00528 H
atom 15.48733 1.26980 2.21507 H
atom 17.42245 0.32068 1.65966 C
atom 18.46299 -0.33902 2.23319 C
atom 18.60208 -1.07963 3.01034 H
atom 6.46805 2.08913 1.50831 O
atom 6.79130 3.02633 2.47282 C
atom 5.94604 3.42934 3.01590 H
atom 8.14099 3.18482 2.46755 C
atom 9.51241 3.71668 2.85724 C
atom 9.83486 3.48486 3.88053 H
atom 9.67450 4.78636 2.67180 H
atom 10.10648 2.75507 1.74400 C
atom 10.77297 1.97055 2.12521 H
atom 10.60858 3.27099 0.91541 H
atom 8.67346 2.32188 1.47083 C
atom 7.63292 1.66218 0.89730 C
atom 7.49382 0.92157 0.12015 H
