title geometry
lattice_vector 22.165468 0.000000 0.000000
lattice_vector 0.000000 4.002392 0.000000
lattice_vector 3.930439 0.000000 3.130488
12.560969 -34.976742 -101.871761 17.924522 0.672135 1.217944 /home/trose/genarris_mpi4py/merged_4_17_2019/tests/full_diverse_workflow/harris_single_molecule_prep_aims_dir/geometry
167.438754 -145.023450 78.127832 8.171387 2.673331 1.912535 /home/trose/genarris_mpi4py/merged_4_17_2019/tests/full_diverse_workflow/harris_single_molecule_prep_aims_dir/geometry
