lattice_vector 9.914739 0.0 0.0
lattice_vector 0.0 4.705375 0.0
lattice_vector 2.675464 0.0 6.601351
atom 6.78607 0.98099 7.23741 O
atom 6.13084 2.19086 7.37882 C
atom 6.21340 2.64018 8.36019 H
atom 5.54081 2.48926 6.19152 C
atom 4.72839 3.25885 5.16039 C
atom 5.13672 4.23605 4.87199 H
atom 3.66221 3.37840 5.39241 H
atom 5.05715 2.08144 4.14920 C
atom 5.65292 2.38029 3.27699 H
atom 4.18036 1.52057 3.80064 H
atom 5.83674 1.43471 5.28489 C
atom 6.59872 0.52390 5.94570 C
atom 7.07351 -0.42360 5.72516 H
atom 5.80413 3.33368 -0.63605 O
atom 6.45937 4.54355 -0.77746 C
atom 6.37680 4.99286 -1.75884 H
atom 7.04940 4.84194 0.40983 C
atom 7.86182 5.61154 1.44096 C
atom 7.45348 6.58874 1.72936 H
atom 8.92800 5.73108 1.20894 H
atom 7.53305 4.43413 2.45216 C
atom 6.93728 4.73298 3.32436 H
atom 8.40985 3.87326 2.80071 H
atom 6.75346 3.78739 1.31646 C
atom 5.99148 2.87658 0.65565 C
atom 5.51670 1.92908 0.87619 H
