lattice_vector 6.111002 0.0 0.0
lattice_vector 0.0 13.56839 0.0
lattice_vector -0.812766 0.0 2.914965
atom 4.04103 1.59589 0.81349 O
atom 5.33344 2.08838 0.79785 C
atom 6.10673 1.33303 0.74078 H
atom 5.26610 3.44422 0.86111 C
atom 5.73499 4.89087 0.91493 C
atom 6.26404 5.24871 0.02225 H
atom 6.31890 5.16555 1.80289 H
atom 4.20225 5.29499 0.98036 C
atom 3.84840 5.88754 0.12673 H
atom 3.90229 5.80018 1.90753 H
atom 3.89234 3.80639 0.91825 C
atom 3.16187 2.66081 0.88810 C
atom 2.11500 2.38595 0.90627 H
atom 4.04103 11.97250 0.81349 O
atom 5.33344 11.48001 0.79785 C
atom 6.10673 12.23536 0.74078 H
atom 5.26610 10.12417 0.86111 C
atom 5.73499 8.67752 0.91493 C
atom 6.26404 8.31968 0.02225 H
atom 6.31890 8.40284 1.80289 H
atom 4.20225 8.27340 0.98036 C
atom 3.84840 7.68085 0.12673 H
atom 3.90229 7.76821 1.90753 H
atom 3.89234 9.76200 0.91825 C
atom 3.16187 10.90758 0.88810 C
atom 2.11500 11.18244 0.90627 H
