lattice_vector 4.410588 0.0 0.0
lattice_vector 0.0 7.443058 0.0
lattice_vector 4.132138 0.0 4.191252
atom 7.83021 0.53992 1.40953 O
atom 7.42765 1.42845 2.39013 C
atom 8.05625 2.30332 2.49619 H
atom 6.30450 0.93074 2.97123 C
atom 5.10950 0.83764 3.90870 C
atom 4.34770 1.61743 3.78061 H
atom 5.35169 0.75526 4.97613 H
atom 4.76968 -0.54018 3.19944 C
atom 3.81121 -0.55534 2.66455 H
atom 4.81884 -1.41709 3.85780 H
atom 5.99918 -0.30336 2.33452 C
atom 6.94502 -0.52230 1.38357 C
atom 7.16830 -1.28251 0.64597 H
atom 0.71252 4.26145 2.78172 O
atom 1.11508 5.14998 1.80112 C
atom 0.48647 6.02485 1.69506 H
atom 2.23822 4.65227 1.22002 C
atom 3.43322 4.55917 0.28256 C
atom 4.19503 5.33896 0.41064 H
atom 3.19104 4.47679 -0.78488 H
atom 3.77304 3.18135 0.99181 C
atom 4.73151 3.16619 1.52670 H
atom 3.72389 2.30444 0.33345 H
atom 2.54355 3.41817 1.85673 C
atom 1.59770 3.19923 2.80768 C
atom 1.37443 2.43902 3.54528 H
