title geometry
lattice_vector 3.081003 0.000000 0.000000
lattice_vector 0.000000 17.814537 0.000000
lattice_vector 1.891543 0.000000 5.088841
45.402088 -39.019883 -13.821033 2.717857 14.346213 2.268087 /home/trose/genarris_mpi4py/merged_4_17_2019/tests/full_diverse_workflow/harris_single_molecule_prep_aims_dir/geometry
-137.785817 -30.658986 -27.778208 2.717857 3.468320 2.268087 /home/trose/genarris_mpi4py/merged_4_17_2019/tests/full_diverse_workflow/harris_single_molecule_prep_aims_dir/geometry
