lattice_vector 3.502598 0.0 0.0
lattice_vector 0.0 17.642813 0.0
lattice_vector -0.303345 0.0 5.020581
atom 2.63959 6.87985 -0.37809 O
atom 3.05937 6.33841 0.82347 C
atom 3.27403 7.06345 1.59809 H
atom 3.08521 4.98647 0.68773 C
atom 3.28335 3.52332 1.05579 C
atom 2.62023 3.14090 1.84247 H
atom 4.31451 3.23127 1.29303 H
atom 2.82172 3.17822 -0.42229 C
atom 1.89397 2.59510 -0.48755 H
atom 3.58810 2.68969 -1.03779 H
atom 2.67006 4.67719 -0.63652 C
atom 2.40305 5.84959 -1.26980 C
atom 2.06721 6.16421 -2.24962 H
atom 2.63959 10.76297 -0.37809 O
atom 3.05937 11.30440 0.82347 C
atom 3.27403 10.57936 1.59809 H
atom 3.08521 12.65635 0.68773 C
atom 3.28335 14.11949 1.05579 C
atom 2.62023 14.50191 1.84247 H
atom 4.31451 14.41154 1.29303 H
atom 2.82172 14.46460 -0.42229 C
atom 1.89397 15.04771 -0.48755 H
atom 3.58810 14.95312 -1.03779 H
atom 2.67006 12.96562 -0.63652 C
atom 2.40305 11.79322 -1.26980 C
atom 2.06721 11.47860 -2.24962 H
