lattice_vector 4.54956 0.0 0.0
lattice_vector 0.0 9.556181 0.0
lattice_vector -1.050511 0.0 4.86347
atom 4.60380 7.47032 2.31599 O
atom 3.73314 7.41140 1.24287 C
atom 3.99503 8.05107 0.40978 H
atom 2.74872 6.52626 1.54994 C
atom 1.48646 5.69121 1.39207 C
atom 1.51634 4.93732 0.59483 H
atom 0.55185 6.25988 1.30278 H
atom 1.78118 5.12730 2.84535 C
atom 1.97867 4.04825 2.88615 H
atom 1.01750 5.37354 3.59435 H
atom 3.01374 6.01982 2.85182 C
atom 4.15216 6.61083 3.30078 C
atom 4.76499 6.57871 4.19254 H
atom -1.10476 2.69223 2.54748 O
atom -0.23409 2.63331 3.62060 C
atom -0.49598 3.27298 4.45369 H
atom 0.75033 1.74817 3.31353 C
atom 2.01258 0.91312 3.47140 C
atom 1.98271 0.15923 4.26864 H
atom 2.94720 1.48179 3.56069 H
atom 1.71786 0.34921 2.01812 C
atom 1.52038 -0.72984 1.97732 H
atom 2.48155 0.59545 1.26912 H
atom 0.48531 1.24172 2.01165 C
atom -0.65311 1.83274 1.56269 C
atom -1.26594 1.80062 0.67093 H
