lattice_vector 10.30716 0.0 0.0
lattice_vector 0.0 6.964416 0.0
lattice_vector -4.78617 0.0 4.380442
atom 7.56108 6.82135 1.34817 O
atom 7.12276 6.01059 0.31684 C
atom 6.81411 6.53863 -0.57630 H
atom 7.20692 4.71984 0.73365 C
atom 7.10217 3.20229 0.69357 C
atom 7.75132 2.70388 -0.03789 H
atom 6.08545 2.80141 0.59140 H
atom 7.66384 3.21037 2.17727 C
atom 8.63542 2.71477 2.30147 H
atom 6.96943 2.81661 2.93065 H
atom 7.71170 4.72709 2.06285 C
atom 7.92075 6.02211 2.41793 C
atom 8.28141 6.55912 3.28589 H
atom 5.16800 0.14306 3.53839 O
atom 4.72968 0.95383 2.50706 C
atom 4.42103 0.42578 1.61392 H
atom 4.81384 2.24457 2.92387 C
atom 4.70909 3.76212 2.88379 C
atom 5.35823 4.26054 2.15233 H
atom 3.69237 4.16300 2.78162 H
atom 5.27076 3.75405 4.36749 C
atom 6.24233 4.24964 4.49169 H
atom 4.57634 4.14781 5.12087 H
atom 5.31862 2.23732 4.25307 C
atom 5.52767 0.94231 4.60815 C
atom 5.88833 0.40529 5.47611 H
