lattice_vector 20.013157 0.0 0.0
lattice_vector 0.0 3.210757 0.0
lattice_vector 5.679368 0.0 3.307615
atom 19.74077 1.93603 2.60493 O
atom 19.73814 1.94317 1.22180 C
atom 20.55133 1.39528 0.76317 H
atom 18.66615 2.66899 0.80844 C
atom 17.68231 3.33996 -0.13886 C
atom 17.09953 2.65958 -0.77312 H
atom 18.10073 4.13545 -0.76892 H
atom 16.91966 3.85283 1.15429 C
atom 15.89675 3.47000 1.26425 H
atom 16.90108 4.94412 1.27084 H
atom 17.98187 3.12736 1.96744 C
atom 18.65648 2.66764 3.05392 C
atom 18.56226 2.72698 4.13068 H
atom 5.95175 1.93603 0.70269 O
atom 5.95438 1.94317 2.08582 C
atom 5.14120 1.39528 2.54445 H
atom 7.02637 2.66899 2.49918 C
atom 8.01022 3.33996 3.44648 C
atom 8.59299 2.65958 4.08074 H
atom 7.59179 4.13545 4.07654 H
atom 8.77287 3.85283 2.15333 C
atom 9.79578 3.47000 2.04337 H
atom 8.79144 4.94412 2.03678 H
atom 7.71065 3.12736 1.34017 C
atom 7.03605 2.66764 0.25370 C
atom 7.13026 2.72698 -0.82306 H
