lattice_vector 5.80959 0.0 0.0
lattice_vector 0.0 7.069755 0.0
lattice_vector -2.586018 0.0 5.224482
atom 1.69173 1.43601 5.71905 O
atom 0.91329 0.56125 4.98288 C
atom 0.65983 -0.35985 5.49194 H
atom 0.67425 1.13018 3.77210 C
atom 0.13702 1.29232 2.35766 C
atom -0.95619 1.33915 2.27085 H
atom 0.51712 0.57140 1.62236 H
atom 0.86205 2.70327 2.33631 C
atom 0.18716 3.56306 2.23496 H
atom 1.66209 2.79440 1.59035 H
atom 1.32284 2.39534 3.75360 C
atom 1.93851 2.56115 4.95373 C
atom 2.54386 3.31677 5.43789 H
atom 2.98474 5.63375 3.10681 O
atom 2.20630 6.50851 2.37064 C
atom 1.95284 7.42960 2.87970 H
atom 1.96726 5.93957 1.15986 C
atom 1.43003 5.77743 -0.25458 C
atom 0.33682 5.73061 -0.34139 H
atom 1.81013 6.49835 -0.98988 H
atom 2.15506 4.36649 -0.27593 C
atom 1.48017 3.50669 -0.37729 H
atom 2.95510 4.27535 -1.02189 H
atom 2.61585 4.67442 1.14136 C
atom 3.23152 4.50861 2.34149 C
atom 3.83687 3.75299 2.82564 H
