title geometry
lattice_vector 5.809590 0.000000 0.000000
lattice_vector 0.000000 7.069755 0.000000
lattice_vector -2.586018 0.000000 5.224482
-135.213494 -116.071155 -48.592685 1.083585 1.722585 4.000299 /home/trose/genarris_mpi4py/merged_4_17_2019/tests/full_diverse_workflow/harris_single_molecule_prep_aims_dir/geometry
87.157035 -97.878598 -89.278474 2.376595 5.347167 1.388058 /home/trose/genarris_mpi4py/merged_4_17_2019/tests/full_diverse_workflow/harris_single_molecule_prep_aims_dir/geometry
