lattice_vector 5.313077 0.0 0.0
lattice_vector 0.0 14.640312 0.0
lattice_vector 1.337629 0.0 3.228497
atom 1.76777 9.17790 1.27022 O
atom 0.40999 9.26471 1.02121 C
atom -0.07847 8.31755 0.83126 H
atom 0.05445 10.57465 1.08837 C
atom -0.82896 11.81290 1.04566 C
atom -1.61057 11.86140 1.81480 H
atom -1.28105 12.03735 0.07093 H
atom 0.47683 12.65053 1.37761 C
atom 0.44705 13.18354 2.33678 H
atom 0.77883 13.35584 0.59264 H
atom 1.22452 11.32512 1.38733 C
atom 2.25957 10.45095 1.49385 C
atom 3.32109 10.49866 1.70053 H
atom 2.43658 5.46242 2.88447 O
atom 1.07880 5.37560 2.63546 C
atom 0.59034 6.32277 2.44551 H
atom 0.72327 4.06566 2.70262 C
atom -0.16015 2.82741 2.65991 C
atom -0.94176 2.77891 3.42904 H
atom -0.61224 2.60296 1.68518 H
atom 1.14565 1.98979 2.99185 C
atom 1.11587 1.45677 3.95103 H
atom 1.44765 1.28448 2.20689 H
atom 1.89333 3.31519 3.00158 C
atom 2.92839 4.18936 3.10810 C
atom 3.98991 4.14165 3.31478 H
