lattice_vector 4.740356 0.0 0.0
lattice_vector 0.0 13.344585 0.0
lattice_vector -0.391039 0.0 2.867176
atom 2.51569 5.67493 -0.00876 O
atom 1.43361 4.81454 0.03565 C
atom 0.55758 5.15845 -0.49924 H
atom 1.79083 3.72947 0.77174 C
atom 1.67374 2.38120 1.46745 C
atom 1.52393 1.51961 0.80408 H
atom 0.93730 2.33112 2.27985 H
atom 3.17159 2.59429 1.94486 C
atom 3.88463 1.85442 1.55863 H
atom 3.29788 2.66984 3.03261 H
atom 3.13374 3.91985 1.19834 C
atom 3.55642 5.11551 0.70989 C
atom 4.45997 5.71091 0.74015 H
atom 2.51569 7.66966 -0.00876 O
atom 1.43361 8.53004 0.03565 C
atom 0.55758 8.18614 -0.49924 H
atom 1.79083 9.61512 0.77174 C
atom 1.67374 10.96338 1.46745 C
atom 1.52393 11.82497 0.80408 H
atom 0.93730 11.01346 2.27985 H
atom 3.17159 10.75030 1.94486 C
atom 3.88463 11.49016 1.55863 H
atom 3.29788 10.67474 3.03261 H
atom 3.13374 9.42474 1.19834 C
atom 3.55642 8.22907 0.70989 C
atom 4.45997 7.63367 0.74015 H
