lattice_vector 7.896035 0.0 0.0
lattice_vector 0.0 11.128699 0.0
lattice_vector -2.762831 0.0 2.862331
atom 0.74429 10.03597 -0.49576 O
atom 0.00181 9.07490 -1.15772 C
atom -0.39897 9.38879 -2.11304 H
atom -0.01643 7.95534 -0.38759 C
atom -0.33983 6.53381 0.04851 C
atom 0.07585 5.73991 -0.58535 H
atom -1.40292 6.32342 0.22296 H
atom 0.49821 6.83760 1.36088 C
atom 1.39549 6.21747 1.48463 H
atom -0.08283 6.80503 2.29156 H
atom 0.73589 8.22721 0.78787 C
atom 1.19111 9.50470 0.70034 C
atom 1.78751 10.17810 1.30255 H
atom 4.38891 4.47162 3.35809 O
atom 5.13139 3.51055 4.02005 C
atom 5.53217 3.82444 4.97537 H
atom 5.14963 2.39099 3.24992 C
atom 5.47303 0.96946 2.81382 C
atom 5.05735 0.17557 3.44768 H
atom 6.53613 0.75907 2.63937 H
atom 4.63499 1.27325 1.50145 C
atom 3.73771 0.65312 1.37770 H
atom 5.21603 1.24068 0.57077 H
atom 4.39731 2.66286 2.07446 C
atom 3.94209 3.94035 2.16200 C
atom 3.34570 4.61375 1.55979 H
