lattice_vector 7.58643707 0.15352749 0.08989968
lattice_vector -0.17482813 8.11149661 0.14451876
lattice_vector -3.78577231 -0.2559196 9.47077149
atom -2.60531 7.31236 3.01660 C
atom -3.59298 7.67933 2.50966 N
atom -1.46082 6.80998 3.64779 C
atom 0.09654 7.59224 3.56792 S
atom 0.81395 6.32392 4.48661 C
atom -0.10201 5.33865 4.83548 C
atom -1.40822 5.62416 4.36183 C
atom 0.14501 4.17856 5.48517 O
atom 1.88229 6.34517 4.68153 H
atom -2.28418 4.99664 4.50853 H
atom 0.94675 4.24191 6.08175 H
atom 8.07145 3.49220 1.99939 C
atom 9.04624 3.87357 2.52013 N
atom 6.94602 2.96819 1.35194 C
atom 5.35997 3.68719 1.45498 S
atom 4.69237 2.42426 0.49260 C
atom 5.64562 1.48726 0.11187 C
atom 6.93952 1.80647 0.59755 C
atom 5.44294 0.34081 -0.57639 O
atom 3.62387 2.41058 0.29782 H
atom 7.83935 1.21911 0.43062 H
atom 4.64633 0.39748 -1.17982 H
atom 6.23328 0.69819 6.68749 C
atom 7.22363 0.33450 7.19146 N
atom 5.08710 1.19903 6.05819 C
atom 3.53079 0.41456 6.13725 S
atom 2.81195 1.68240 5.21892 C
atom 3.72665 2.66902 4.87063 C
atom 5.03301 2.38497 5.34453 C
atom 3.47802 3.82955 4.22225 O
atom 1.74360 1.65985 5.02413 H
atom 5.90827 3.01347 5.19798 H
atom 2.68093 3.76391 3.62005 H
atom -4.44390 4.51611 7.70389 C
atom -5.41684 4.13309 7.18087 N
atom -3.31997 5.04125 8.35310 C
atom -1.73235 4.32629 8.24712 S
atom -1.06695 5.58853 9.21197 C
atom -2.02215 6.52227 9.59576 C
atom -3.31578 6.20130 9.11016 C
atom -1.82249 7.66679 10.28787 O
atom 0.00161 5.60420 9.40635 H
atom -4.21682 6.78632 9.27895 H
atom -1.01787 7.61464 10.88167 H
