lattice_vector 6.72322267 0.02776676 0.8018649
lattice_vector -0.04985711 8.24485999 -0.12442398
lattice_vector 0.17229607 0.09740451 10.28611615
atom 1.65628 2.95891 2.88947 C
atom 1.63671 4.12818 2.92068 N
atom 1.68142 1.55852 2.83962 C
atom 1.99859 0.74027 1.33303 S
atom 1.83554 -0.79578 2.08338 C
atom 1.55342 -0.68399 3.43907 C
atom 1.45602 0.66327 3.87457 C
atom 1.35525 -1.70642 4.30338 O
atom 1.92360 -1.69374 1.47800 H
atom 1.19352 0.95996 4.88677 H
atom 1.46342 -2.57128 3.81463 H
atom 5.07344 7.11983 2.90189 C
atom 5.08269 8.28709 2.82912 N
atom 5.06166 5.72195 2.99684 C
atom 4.75286 4.94518 4.52707 S
atom 4.94336 3.38978 3.82535 C
atom 5.22730 3.46373 2.46760 C
atom 5.30358 4.79807 1.99070 C
atom 5.44620 2.41890 1.63631 O
atom 4.86787 2.51051 4.45895 H
atom 5.56245 5.06390 0.96907 H
atom 5.34509 1.56676 2.14880 H
atom 5.18937 5.41113 8.07410 C
atom 5.20892 4.24186 8.04289 N
atom 5.16423 6.81152 8.12395 C
atom 4.84705 7.62976 9.63053 S
atom 5.01012 9.16582 8.88020 C
atom 5.29226 9.05403 7.52450 C
atom 5.38965 7.70677 7.08900 C
atom 5.49043 10.07646 6.66021 O
atom 4.92206 10.06377 9.48558 H
atom 5.65215 7.41008 6.07681 H
atom 5.38225 10.94132 7.14896 H
atom 1.77223 1.25019 8.06166 C
atom 1.76301 0.08292 8.13449 N
atom 1.78400 2.64807 7.96669 C
atom 2.09281 3.42483 6.43647 S
atom 1.90228 4.98025 7.13817 C
atom 1.61835 4.90630 8.49593 C
atom 1.54208 3.57196 8.97283 C
atom 1.39946 5.95113 9.32721 O
atom 1.97778 5.85951 6.50457 H
atom 1.28321 3.30614 9.99446 H
atom 1.50058 6.80327 8.81474 H
