lattice_vector 8.31308396 0.02641207 -0.0352104
lattice_vector 0.04141267 7.0441858 -0.02589168
lattice_vector 8.08755288 0.16987258 9.9107456
atom 13.05001 4.96401 6.05523 C
atom 14.21355 4.95168 6.17323 N
atom 11.65470 4.97485 5.91814 C
atom 10.89355 5.87746 4.63442 S
atom 9.33478 5.38308 5.17243 C
atom 9.39614 4.55505 6.28893 C
atom 10.73111 4.32426 6.71781 C
atom 8.36237 3.99275 6.94281 O
atom 8.45289 5.67679 4.60932 H
atom 10.98990 3.69903 7.57024 H
atom 7.49447 4.34222 6.59269 H
atom 7.39846 1.48046 8.75462 C
atom 6.23464 1.47257 8.63664 N
atom 8.79424 1.48710 8.89328 C
atom 9.55648 2.40549 10.16541 S
atom 11.11558 1.91229 9.62628 C
atom 11.05292 1.07357 8.51809 C
atom 9.71756 0.83058 8.09805 C
atom 12.09034 0.51445 7.86413 O
atom 11.99860 2.21283 10.18287 H
atom 9.45777 0.19448 7.25423 H
atom 12.95328 0.87931 8.20910 H
atom 3.39206 2.27649 3.79437 C
atom 2.22851 2.28875 3.67643 N
atom 4.78736 2.26564 3.93146 C
atom 5.54848 1.36306 5.21523 S
atom 7.10727 1.85740 4.67722 C
atom 7.04593 2.68540 3.56070 C
atom 5.71097 2.91619 3.13178 C
atom 8.07971 3.24767 2.90681 O
atom 7.98914 1.56370 5.24036 H
atom 5.45221 3.54139 2.27932 H
atom 8.94761 2.89820 3.25695 H
atom 9.04357 5.76006 1.09509 C
atom 10.20741 5.76786 1.21300 N
atom 7.64780 5.75342 0.95642 C
atom 6.88561 4.83506 -0.31576 S
atom 5.32648 5.32822 0.22334 C
atom 5.38910 6.16690 1.33156 C
atom 6.72445 6.40990 1.75165 C
atom 4.35167 6.72600 1.98551 O
atom 4.44348 5.02767 -0.33327 H
atom 6.98420 7.04598 2.59550 H
atom 3.48873 6.36112 1.64053 H
