lattice_vector 8.28672029 -0.00280394 -0.06981928
lattice_vector -0.00679605 8.799942 -0.09998411
lattice_vector 6.51909028 0.14062359 8.0689605
atom 10.75969 0.90569 1.31218 C
atom 11.92162 0.77229 1.27554 N
atom 9.37119 1.08799 1.33806 C
atom 8.61748 2.14390 0.17114 S
atom 7.05917 1.78368 0.79748 C
atom 7.11401 0.88976 1.85897 C
atom 8.43991 0.49105 2.17468 C
atom 6.05983 0.40699 2.55868 O
atom 6.18512 2.27265 0.37710 H
atom 8.68674 -0.19947 2.97853 H
atom 5.20896 0.58855 2.06614 H
atom 0.95787 5.23950 2.58904 C
atom -0.19938 5.07376 2.63732 N
atom 2.34325 5.43965 2.53197 C
atom 3.10094 6.67473 3.50581 S
atom 4.65742 6.22836 2.92821 C
atom 4.59949 5.16925 2.03164 C
atom 3.27304 4.72332 1.79458 C
atom 5.64311 4.57589 1.40951 O
atom 5.53250 6.77820 3.26190 H
atom 3.02061 3.91189 1.11748 H
atom 6.49730 4.79091 1.87955 H
atom 4.03934 8.03207 6.58697 C
atom 2.87741 8.16548 6.62361 N
atom 5.42783 7.84977 6.56109 C
atom 6.18154 6.79386 7.72801 S
atom 7.73986 7.15408 7.10168 C
atom 7.68502 8.04800 6.04019 C
atom 6.35911 8.44671 5.72447 C
atom 8.73920 8.53078 5.34048 O
atom 8.61391 6.66512 7.52206 H
atom 6.11228 9.13722 4.92062 H
atom 9.59007 8.34921 5.83302 H
atom 13.84113 3.69827 5.31013 C
atom 14.99839 3.86396 5.26182 N
atom 12.45575 3.49813 5.36719 C
atom 11.69808 2.26304 4.39336 S
atom 10.14160 2.70940 4.97095 C
atom 10.19951 3.76851 5.86752 C
atom 11.52596 4.21445 6.10458 C
atom 9.15588 4.36186 6.48965 O
atom 9.26652 2.15956 4.63725 H
atom 11.77838 5.02588 6.78169 H
atom 8.30170 4.14684 6.01960 H
