lattice_vector 6.56679707 0.22781787 0.24327422
lattice_vector -0.39560263 12.59386226 -1.01364409
lattice_vector 6.98537292 0.83348177 7.21891893
atom 8.61719 8.93278 3.24289 C
atom 8.64408 8.01730 3.97349 N
atom 8.55167 9.99995 2.33661 C
atom 8.48433 11.65656 2.88910 S
atom 8.34453 12.22288 1.27550 C
atom 8.33866 11.19299 0.34661 C
atom 8.45911 9.91706 0.95418 C
atom 8.25773 11.31231 -0.99809 O
atom 8.31582 13.28951 1.08632 H
atom 8.47296 8.98821 0.38908 H
atom 7.93659 12.22385 -1.24012 H
atom 1.12935 2.07200 -0.22606 C
atom 1.14555 1.04602 -0.79043 N
atom 1.12350 3.27672 0.49115 C
atom 1.09615 4.82129 -0.32432 S
atom 1.17993 5.65079 1.17613 C
atom 1.23726 4.78814 2.26095 C
atom 1.20328 3.42548 1.86898 C
atom 1.29258 5.12769 3.56864 O
atom 1.13404 6.73317 1.18791 H
atom 1.23435 2.60123 2.57816 H
atom 1.55418 6.08451 3.66417 H
atom 4.54190 4.71854 3.20422 C
atom 4.50491 5.64730 2.49189 N
atom 4.61051 3.64494 4.10247 C
atom 4.67126 1.98983 3.54789 S
atom 4.81101 1.42065 5.16189 C
atom 4.82174 2.45002 6.09168 C
atom 4.70547 3.72624 5.48448 C
atom 4.90143 2.33333 7.43614 O
atom 4.82790 0.35363 5.34841 H
atom 4.69084 4.65493 6.05040 H
atom 5.22351 1.42333 7.68508 H
atom 12.04041 11.59192 6.67972 C
atom 12.02180 12.61328 7.25280 N
atom 12.04389 10.38787 5.96191 C
atom 12.05201 8.84383 6.77944 S
atom 11.96255 8.01388 5.27990 C
atom 11.91496 8.87555 4.19447 C
atom 11.96562 10.23846 4.58430 C
atom 11.85740 8.53510 2.88707 O
atom 11.99093 6.93086 5.26923 H
atom 11.94695 11.06209 3.87410 H
atom 11.59053 7.57930 2.79426 H
