lattice_vector 6.457771 0.0 0.0
lattice_vector 0.0 5.86621 0.0
lattice_vector 5.725827 0.0 6.825549
atom 5.71930 6.70863 5.91852 O
atom 6.18637 6.22904 7.12887 C
atom 5.50958 6.36443 7.96279 H
atom 7.42001 5.69807 6.92140 C
atom 8.74505 5.01572 7.22832 C
atom 8.67196 3.97377 7.56572 H
atom 9.40982 5.56020 7.91132 H
atom 9.09197 5.18875 5.68994 C
atom 9.22105 4.24682 5.14120 H
atom 9.95522 5.83542 5.48635 H
atom 7.73023 5.85185 5.54236 C
atom 6.67665 6.47210 4.94895 C
atom 6.41124 6.81055 3.95556 H
atom 6.46430 3.77552 0.90702 O
atom 5.99723 3.29593 -0.30332 C
atom 6.67402 3.43133 -1.13725 H
atom 4.76359 2.76497 -0.09585 C
atom 3.43855 2.08262 -0.40277 C
atom 3.51164 1.04067 -0.74017 H
atom 2.77378 2.62709 -1.08578 H
atom 3.09163 2.25564 1.13561 C
atom 2.96255 1.31371 1.68435 H
atom 2.22838 2.90232 1.33920 H
atom 4.45337 2.91875 1.28319 C
atom 5.50695 3.53899 1.87660 C
atom 5.77236 3.87744 2.86999 H
