title geometry
lattice_vector 6.457771 0.000000 0.000000
lattice_vector 0.000000 5.866210 0.000000
lattice_vector 5.725827 0.000000 6.825549
-152.041751 -135.184350 168.022562 7.349904 5.889313 6.194012 /home/trose/genarris_mpi4py/merged_4_17_2019/tests/full_diverse_workflow/harris_single_molecule_prep_aims_dir/geometry
-27.958267 -44.816084 -11.977479 4.833696 2.956208 0.631528 /home/trose/genarris_mpi4py/merged_4_17_2019/tests/full_diverse_workflow/harris_single_molecule_prep_aims_dir/geometry
