lattice_vector 5.201624 0.0 0.0
lattice_vector 0.0 14.873376 0.0
lattice_vector -1.593812 0.0 2.891532
atom 1.41598 9.96265 -1.19210 O
atom 1.05599 11.23419 -1.60039 C
atom 0.58799 11.28277 -2.57529 H
atom 1.40678 12.10496 -0.61778 C
atom 1.58293 13.42657 0.11561 C
atom 0.65306 13.93967 0.39291 H
atom 2.25226 14.14973 -0.36803 H
atom 2.24940 12.58912 1.28667 C
atom 1.70508 12.62129 2.23939 H
atom 3.30392 12.82785 1.47598 H
atom 2.00274 11.35416 0.43235 C
atom 1.99797 10.04730 0.05957 C
atom 2.31929 9.10148 0.47668 H
atom 1.41598 4.91072 -1.19210 O
atom 1.05599 3.63918 -1.60039 C
atom 0.58799 3.59061 -2.57529 H
atom 1.40678 2.76841 -0.61778 C
atom 1.58293 1.44680 0.11561 C
atom 0.65306 0.93371 0.39291 H
atom 2.25226 0.72364 -0.36803 H
atom 2.24940 2.28426 1.28667 C
atom 1.70508 2.25209 2.23939 H
atom 3.30392 2.04553 1.47598 H
atom 2.00274 3.51922 0.43235 C
atom 1.99797 4.82607 0.05957 C
atom 2.31929 5.77190 0.47668 H
