lattice_vector 3.100696 0.0 0.0
lattice_vector 0.0 14.955502 0.0
lattice_vector 0.405768 0.0 4.392416
atom 2.96313 5.77197 0.61721 O
atom 2.12474 4.93995 -0.10249 C
atom 1.82051 5.32573 -1.06707 H
atom 1.90896 3.82062 0.63737 C
atom 1.36495 2.45252 1.02192 C
atom 1.69391 1.61896 0.38805 H
atom 0.27541 2.39392 1.14164 H
atom 2.17191 2.60849 2.37890 C
atom 2.96432 1.86366 2.52827 H
atom 1.54692 2.64260 3.28060 H
atom 2.63340 3.95984 1.85287 C
atom 3.26997 5.16004 1.81884 C
atom 3.92585 5.72953 2.46484 H
atom 2.96313 9.18353 0.61721 O
atom 2.12474 10.01556 -0.10249 C
atom 1.82051 9.62978 -1.06707 H
atom 1.90896 11.13488 0.63737 C
atom 1.36495 12.50298 1.02192 C
atom 1.69391 13.33654 0.38805 H
atom 0.27541 12.56159 1.14164 H
atom 2.17191 12.34701 2.37890 C
atom 2.96432 13.09184 2.52827 H
atom 1.54692 12.31291 3.28060 H
atom 2.63340 10.99566 1.85287 C
atom 3.26997 9.79546 1.81884 C
atom 3.92585 9.22597 2.46484 H
