lattice_vector 6.039931 0.0 0.0
lattice_vector 3.995751858675202e-16 6.525558 0.0
lattice_vector 3.995751857684215e-16 -3.2627789999999997 5.651299
atom 2.51589 0.29401 2.40016 C
atom 2.51589 -1.03718 2.82922 C
atom 2.51589 -1.33119 4.19660 C
atom 2.51589 -0.29401 5.13491 C
atom 2.51589 1.03718 4.70584 C
atom 2.51589 1.33119 3.33847 C
atom 2.51589 0.52345 1.33314 H
atom 2.51589 -1.84653 2.09702 H
atom 2.51589 -2.36997 4.53141 H
atom 2.51589 -0.52345 6.20193 H
atom 2.51589 1.84653 5.43805 H
atom 2.51589 2.36997 3.00365 H
atom 5.53585 1.33119 4.19660 C
atom 5.53585 0.29401 5.13491 C
atom 5.53585 -1.03718 4.70584 C
atom 5.53585 -1.33119 3.33847 C
atom 5.53585 -0.29401 2.40016 C
atom 5.53585 1.03718 2.82922 C
atom 5.53585 2.36997 4.53141 H
atom 5.53585 0.52345 6.20193 H
atom 5.53585 -1.84653 5.43805 H
atom 5.53585 -2.36997 3.00365 H
atom 5.53585 -0.52345 1.33314 H
atom 5.53585 1.84653 2.09702 H
