lattice_vector 18.324909 0.0 0.0
lattice_vector 0.0 3.492786 0.0
lattice_vector -4.470505 0.0 4.566763
atom 0.28205 1.34309 2.31258 O
atom 0.88184 1.63894 3.52330 C
atom 0.19531 1.89925 4.31874 H
atom 2.22597 1.51365 3.36688 C
atom 3.70613 1.52220 3.71982 C
atom 4.01673 0.78216 4.46862 H
atom 4.11945 2.49978 3.99975 H
atom 3.97886 1.09483 2.21653 C
atom 4.44859 0.10968 2.09890 H
atom 4.54709 1.82769 1.62928 H
atom 2.47021 1.12918 2.01997 C
atom 1.26786 1.03115 1.39420 C
atom 0.90553 0.78153 0.40514 H
atom 13.57235 1.34309 2.25418 O
atom 12.97256 1.63894 1.04346 C
atom 13.65909 1.89925 0.24803 H
atom 11.62844 1.51365 1.19988 C
atom 10.14827 1.52220 0.84694 C
atom 9.83768 0.78216 0.09814 H
atom 9.73495 2.49978 0.56701 H
atom 9.87555 1.09483 2.35023 C
atom 9.40581 0.10968 2.46786 H
atom 9.30731 1.82769 2.93748 H
atom 11.38419 1.12918 2.54679 C
atom 12.58655 1.03115 3.17256 C
atom 12.94887 0.78153 4.16162 H
