lattice_vector 15.0117459115 0 0
lattice_vector 6.50690385205e-16 10.6265804256 0
lattice_vector 5.75767804704e-16 5.75767804704e-16 9.40300183049
atom 2.64862 7.15167 4.30620 S
atom 2.53726 9.56059 2.88029 C
atom 4.94830 8.73844 3.84836 C
atom 4.04295 10.21978 3.52920 S
atom 4.36216 7.47806 4.15328 C
atom 1.98120 8.34816 3.18842 C
atom 0.74271 7.94449 2.62749 C
atom 1.89209 10.45056 1.98275 C
atom -0.28289 7.58186 2.20601 N
atom 1.38684 11.22069 1.26695 N
atom 5.36242 6.53758 4.37408 C
atom 5.22262 5.17392 4.69721 C
atom 5.11996 4.04311 4.96404 N
atom 6.26837 8.79579 3.83025 N
atom 6.89970 7.32486 4.21235 S
atom 12.36313 3.47491 4.30620 S
atom 12.47449 1.06599 2.88029 C
atom 10.06345 1.88814 3.84836 C
atom 10.96880 0.40680 3.52920 S
atom 10.64958 3.14852 4.15328 C
atom 13.03055 2.27842 3.18842 C
atom 14.26904 2.68210 2.62749 C
atom 13.11966 0.17602 1.98275 C
atom 15.29463 3.04472 2.20601 N
atom 13.62491 -0.59411 1.26695 N
atom 9.64933 4.08900 4.37408 C
atom 9.78913 5.45266 4.69721 C
atom 9.89178 6.58347 4.96404 N
atom 8.74337 1.83079 3.83025 N
atom 8.11204 3.30173 4.21235 S
atom 2.64862 3.47491 9.00771 S
atom 2.53726 1.06599 7.58179 C
atom 4.94830 1.88814 8.54986 C
atom 4.04295 0.40680 8.23070 S
atom 4.36216 3.14852 8.85478 C
atom 1.98120 2.27842 7.88992 C
atom 0.74271 2.68210 7.32899 C
atom 1.89209 0.17602 6.68425 C
atom -0.28289 3.04472 6.90751 N
atom 1.38684 -0.59411 5.96845 N
atom 5.36242 4.08900 9.07558 C
atom 5.22262 5.45266 9.39871 C
atom 5.11996 6.58347 9.66554 N
atom 6.26837 1.83079 8.53175 N
atom 6.89970 3.30173 8.91385 S
atom 12.36313 7.15167 9.00771 S
atom 12.47449 9.56059 7.58179 C
atom 10.06345 8.73844 8.54986 C
atom 10.96880 10.21978 8.23070 S
atom 10.64958 7.47806 8.85478 C
atom 13.03055 8.34816 7.88992 C
atom 14.26904 7.94449 7.32899 C
atom 13.11966 10.45056 6.68425 C
atom 15.29463 7.58186 6.90751 N
atom 13.62491 11.22069 5.96845 N
atom 9.64933 6.53758 9.07558 C
atom 9.78913 5.17392 9.39871 C
atom 9.89178 4.04311 9.66554 N
atom 8.74337 8.79579 8.53175 N
atom 8.11204 7.32486 8.91385 S
