lattice_vector 18.1000519894 0 0
lattice_vector 5.09686293058e-16 8.32380884697 0
lattice_vector 6.09635424e-16 6.09635424e-16 9.95610202753
atom 12.16007 5.34685 1.24736 S
atom 11.28042 6.55113 -1.12424 C
atom 13.29796 7.74583 0.26445 C
atom 11.91525 8.15785 -0.75252 S
atom 13.39263 6.57826 1.07247 C
atom 11.37282 5.43757 -0.33330 C
atom 10.78732 4.20707 -0.72637 C
atom 10.59888 6.50624 -2.36816 C
atom 10.30325 3.18170 -1.00074 N
atom 10.03124 6.51965 -3.38716 N
atom 14.60051 6.58229 1.76152 C
atom 15.09545 5.61857 2.66140 C
atom 15.51674 4.82713 3.40748 N
atom 14.31622 8.58700 0.30676 N
atom 15.45673 8.03580 1.35730 S
atom 5.93998 2.97696 1.24736 S
atom 6.81963 1.77268 -1.12424 C
atom 4.80209 0.57798 0.26445 C
atom 6.18480 0.16596 -0.75252 S
atom 4.70742 1.74555 1.07247 C
atom 6.72724 2.88623 -0.33330 C
atom 7.31274 4.11674 -0.72637 C
atom 7.50117 1.81757 -2.36816 C
atom 7.79680 5.14211 -1.00074 N
atom 8.06881 1.80416 -3.38716 N
atom 3.49954 1.74152 1.76152 C
atom 3.00460 2.70524 2.66140 C
atom 2.58332 3.49668 3.40748 N
atom 3.78383 -0.26319 0.30676 N
atom 2.64332 0.28801 1.35730 S
atom 12.16007 2.97696 6.22541 S
atom 11.28042 1.77268 3.85381 C
atom 13.29796 0.57798 5.24250 C
atom 11.91525 0.16596 4.22553 S
atom 13.39263 1.74555 6.05053 C
atom 11.37282 2.88623 4.64475 C
atom 10.78732 4.11674 4.25168 C
atom 10.59888 1.81757 2.60989 C
atom 10.30325 5.14211 3.97731 N
atom 10.03124 1.80416 1.59089 N
atom 14.60051 1.74152 6.73957 C
atom 15.09545 2.70524 7.63945 C
atom 15.51674 3.49668 8.38553 N
atom 14.31622 -0.26319 5.28481 N
atom 15.45673 0.28801 6.33535 S
atom 5.93998 5.34685 6.22541 S
atom 6.81963 6.55113 3.85381 C
atom 4.80209 7.74583 5.24250 C
atom 6.18480 8.15785 4.22553 S
atom 4.70742 6.57826 6.05053 C
atom 6.72724 5.43757 4.64475 C
atom 7.31274 4.20707 4.25168 C
atom 7.50117 6.50624 2.60989 C
atom 7.79680 3.18170 3.97731 N
atom 8.06881 6.51965 1.59089 N
atom 3.49954 6.58229 6.73957 C
atom 3.00460 5.61857 7.63945 C
atom 2.58332 4.82713 8.38553 N
atom 3.78383 8.58700 5.28481 N
atom 2.64332 8.03580 6.33535 S
