lattice_vector 14.588852 0.0 0.0
lattice_vector 0.0 5.092924 0.0
lattice_vector 3.989307 0.0 3.72659
atom 7.24413 6.46373 5.29041 O
atom 8.20242 5.46796 5.34739 C
atom 8.77298 5.43870 6.26685 H
atom 8.15599 4.77426 4.17972 C
atom 8.50829 3.73003 3.13044 C
atom 8.32039 2.68814 3.42026 H
atom 9.52149 3.80151 2.71431 H
atom 7.37574 4.37900 2.22874 C
atom 6.53631 3.71069 1.99697 H
atom 7.73689 4.82707 1.29406 H
atom 7.13994 5.35502 3.37226 C
atom 6.59626 6.38599 4.07108 C
atom 5.82027 7.12556 3.92037 H
atom 11.33402 6.46373 -1.56382 O
atom 10.37574 5.46796 -1.62081 C
atom 9.80518 5.43870 -2.54027 H
atom 10.42217 4.77426 -0.45313 C
atom 10.06987 3.73003 0.59615 C
atom 10.25777 2.68814 0.30633 H
atom 9.05666 3.80151 1.01228 H
atom 11.20242 4.37900 1.49785 C
atom 12.04185 3.71069 1.72962 H
atom 10.84127 4.82707 2.43253 H
atom 11.43821 5.35502 0.35433 C
atom 11.98190 6.38599 -0.34449 C
atom 12.75789 7.12556 -0.19378 H
