lattice_vector 3.99927 0.0 0.0
lattice_vector 0.0 10.643502 0.0
lattice_vector 3.454719 0.0 5.418791
atom 6.54011 9.48571 1.79706 O
atom 5.55864 8.79747 1.10702 C
atom 5.63436 8.85758 0.02885 H
atom 4.73771 8.21220 2.01827 C
atom 3.57994 7.39418 2.57140 C
atom 3.60578 6.32207 2.33745 H
atom 2.57775 7.77937 2.34313 H
atom 4.11884 7.76787 4.01599 C
atom 4.45312 6.91119 4.61545 H
atom 3.42805 8.37098 4.61925 H
atom 5.22161 8.54594 3.31290 C
atom 6.32365 9.32501 3.15347 C
atom 7.04041 9.82662 3.79102 H
atom 6.54011 1.15780 1.79706 O
atom 5.55864 1.84603 1.10702 C
atom 5.63436 1.78592 0.02885 H
atom 4.73771 2.43130 2.01827 C
atom 3.57994 3.24932 2.57140 C
atom 3.60578 4.32144 2.33745 H
atom 2.57775 2.86413 2.34313 H
atom 4.11884 2.87563 4.01599 C
atom 4.45312 3.73232 4.61545 H
atom 3.42805 2.27252 4.61925 H
atom 5.22161 2.09756 3.31290 C
atom 6.32365 1.31849 3.15347 C
atom 7.04041 0.81688 3.79102 H
