title geometry
lattice_vector 10.189106 0.000000 0.000000
lattice_vector 0.000000 7.418589 0.000000
lattice_vector -4.566629 0.000000 3.927836
71.028421 -102.166775 -136.440151 -0.522538 1.448876 1.282538 /home/trose/genarris_mpi4py/merged_4_17_2019/tests/full_diverse_workflow/harris_single_molecule_prep_aims_dir/geometry
108.971552 -77.833014 43.559533 6.145016 5.158170 2.645289 /home/trose/genarris_mpi4py/merged_4_17_2019/tests/full_diverse_workflow/harris_single_molecule_prep_aims_dir/geometry
