lattice_vector 6.111568 0.0 0.0
lattice_vector 3.9093579255825527e-16 6.384465999999999 0.0
lattice_vector 3.9093575302011604e-16 -3.192232999999999 5.529109
atom 1.48935 0.00000 5.08470 C
atom 1.48935 1.21125 4.38539 C
atom 1.48935 1.21125 2.98676 C
atom 1.48935 0.00000 2.28744 C
atom 1.48935 -1.21125 2.98676 C
atom 1.48935 -1.21125 4.38539 C
atom 1.48935 0.00000 6.17611 H
atom 1.48935 2.15644 4.93109 H
atom 1.48935 2.15644 2.44105 H
atom 1.48935 0.00000 1.19603 H
atom 1.48935 -2.15644 2.44105 H
atom 1.48935 -2.15644 4.93109 H
atom 4.62221 1.21125 2.98676 C
atom 4.62221 0.00000 2.28745 C
atom 4.62221 -1.21125 2.98676 C
atom 4.62221 -1.21125 4.38539 C
atom 4.62221 0.00000 5.08470 C
atom 4.62221 1.21125 4.38539 C
atom 4.62221 2.15644 2.44105 H
atom 4.62221 0.00000 1.19603 H
atom 4.62221 -2.15644 2.44105 H
atom 4.62221 -2.15644 4.93109 H
atom 4.62221 0.00000 6.17611 H
atom 4.62221 2.15644 4.93109 H
