title geometry
lattice_vector 10.806390 0.000000 0.000000
lattice_vector 0.000000 5.638269 0.000000
lattice_vector -0.596318 0.000000 4.517960
-113.258399 -16.322439 129.486104 7.943021 3.926113 0.150858 /home/trose/genarris_mpi4py/merged_4_17_2019/tests/full_diverse_workflow/harris_single_molecule_prep_aims_dir/geometry
-66.741116 -163.677450 -50.513473 2.267053 3.926113 4.367093 /home/trose/genarris_mpi4py/merged_4_17_2019/tests/full_diverse_workflow/harris_single_molecule_prep_aims_dir/geometry
