lattice_vector 11.768354 0.0 0.0
lattice_vector 0.0 6.685727 0.0
lattice_vector -1.350715 0.0 4.106368
atom 0.29320 -0.42965 0.72263 O
atom 0.04721 0.92273 0.87648 C
atom -0.48791 1.38332 0.05593 H
atom 0.57012 1.31083 2.06928 C
atom 0.95100 2.22279 3.22634 C
atom 0.10948 2.65238 3.78502 H
atom 1.65701 3.02684 2.98157 H
atom 1.60960 0.94737 3.90196 C
atom 1.14931 0.64319 4.85096 H
atom 2.69590 1.01542 4.04394 H
atom 1.15905 0.16741 2.67538 C
atom 0.97807 -0.88478 1.83455 C
atom 1.22305 -1.93907 1.81782 H
atom 10.12443 2.91321 3.38373 O
atom 10.37043 4.26559 3.22989 C
atom 10.90555 4.72618 4.05044 H
atom 9.84752 4.65370 2.03709 C
atom 9.46664 5.56565 0.88003 C
atom 10.30816 5.99525 0.32135 H
atom 8.76063 6.36970 1.12480 H
atom 8.80804 4.29024 0.20441 C
atom 9.26833 3.98605 -0.74459 H
atom 7.72174 4.35828 0.06242 H
atom 9.25858 3.51027 1.43099 C
atom 9.43957 2.45808 2.27182 C
atom 9.19459 1.40379 2.28855 H
