title geometry
lattice_vector 11.768354 0.000000 0.000000
lattice_vector 0.000000 6.685727 0.000000
lattice_vector -1.350715 0.000000 4.106368
151.185385 -65.594277 69.990453 0.795946 0.597274 2.171327 /home/trose/genarris_mpi4py/merged_4_17_2019/tests/full_diverse_workflow/harris_single_molecule_prep_aims_dir/geometry
28.814587 -114.405622 -110.009307 9.621696 3.940137 1.935031 /home/trose/genarris_mpi4py/merged_4_17_2019/tests/full_diverse_workflow/harris_single_molecule_prep_aims_dir/geometry
