lattice_vector 5.10194 0.0 0.0
lattice_vector 0.0 6.532677 0.0
lattice_vector -5.62404 0.0 8.390417
atom 0.28844 8.55015 1.17913 O
atom -0.44805 7.82454 0.26034 C
atom -0.54426 8.28864 -0.71288 H
atom -0.86260 6.68040 0.86525 C
atom -1.54733 5.33326 1.04392 C
atom -1.15501 4.51858 0.42166 H
atom -2.64162 5.34449 0.95875 H
atom -0.99970 5.34930 2.53279 C
atom -0.29365 4.54275 2.76938 H
atom -1.77872 5.37262 3.30573 H
atom -0.37052 6.69416 2.19915 C
atom 0.32989 7.84632 2.36885 C
atom 0.88587 8.32788 3.16308 H
atom -0.81054 5.28382 7.21129 O
atom -0.07405 4.55820 8.13008 C
atom 0.02216 5.02230 9.10330 H
atom 0.34051 3.41406 7.52517 C
atom 1.02523 2.06693 7.34650 C
atom 0.63291 1.25224 7.96876 H
atom 2.11952 2.07816 7.43167 H
atom 0.47760 2.08296 5.85762 C
atom -0.22845 1.27641 5.62103 H
atom 1.25662 2.10628 5.08469 H
atom -0.15158 3.42782 6.19127 C
atom -0.85199 4.57998 6.02156 C
atom -1.40797 5.06154 5.22733 H
