lattice_vector 20.383125 0.0 0.0
lattice_vector 0.0 6.076803 0.0
lattice_vector -2.647451 0.0 2.561275
atom 16.29257 7.51879 0.45092 O
atom 15.34785 6.79756 -0.25650 C
atom 14.73163 7.38734 -0.92301 H
atom 15.46431 5.49139 0.10014 C
atom 15.18189 3.99664 0.13866 C
atom 15.37054 3.45672 -0.79821 H
atom 14.19026 3.71269 0.51405 H
atom 16.34898 3.89102 1.20806 C
atom 17.20919 3.28852 0.88862 H
atom 16.02923 3.54879 2.20077 H
atom 16.51129 5.39661 1.05746 C
atom 17.00291 6.64780 1.25672 C
atom 17.77426 7.11131 1.85838 H
atom 1.44311 7.51879 2.11035 O
atom 2.38783 6.79756 2.81777 C
atom 3.00404 7.38734 3.48429 H
atom 2.27137 5.49139 2.46113 C
atom 2.55379 3.99664 2.42262 C
atom 2.36514 3.45672 3.35949 H
atom 3.54542 3.71269 2.04723 H
atom 1.38669 3.89102 1.35321 C
atom 0.52649 3.28852 1.67265 H
atom 1.70644 3.54879 0.36050 H
atom 1.22438 5.39661 1.50381 C
atom 0.73276 6.64780 1.30455 C
atom -0.03859 7.11131 0.70289 H
