lattice_vector 16.099483 0.0 0.0
lattice_vector 0.0 4.551288 0.0
lattice_vector -0.846847 0.0 2.920752
atom 8.80829 1.27552 1.02070 O
atom 9.29893 2.52796 1.34287 C
atom 8.58455 3.18681 1.81971 H
atom 10.59957 2.58171 0.95263 C
atom 11.99426 3.14602 0.72475 C
atom 12.55926 3.38858 1.63401 H
atom 12.05199 3.99973 0.03722 H
atom 12.36051 1.74650 0.07351 C
atom 13.13802 1.18348 0.60594 H
atom 12.62663 1.79347 -0.99036 H
atom 10.92814 1.32689 0.37032 C
atom 9.81828 0.54436 0.42246 C
atom 9.53999 -0.45948 0.12806 H
atom 6.44434 1.27552 1.90006 O
atom 5.95371 2.52796 1.57788 C
atom 6.66809 3.18681 1.10104 H
atom 4.65307 2.58171 1.96812 C
atom 3.25838 3.14602 2.19600 C
atom 2.69337 3.38858 1.28674 H
atom 3.20065 3.99973 2.88354 H
atom 2.89213 1.74650 2.84725 C
atom 2.11462 1.18348 2.31481 H
atom 2.62601 1.79347 3.91111 H
atom 4.32449 1.32689 2.55043 C
atom 5.43436 0.54436 2.49829 C
atom 5.71264 -0.45948 2.79269 H
