title geometry
lattice_vector 3.660416 0.000000 0.000000
lattice_vector 0.000000 16.367275 0.000000
lattice_vector 3.773350 0.000000 4.669508
0.000000 0.000000 0.000000 3.408547 13.634995 2.783691 /home/trose/genarris_mpi4py/merged_4_17_2019/tests/full_diverse_workflow/harris_single_molecule_prep_aims_dir/geometry
-155.280896 -47.808862 31.017822 3.408547 2.732276 2.783691 /home/trose/genarris_mpi4py/merged_4_17_2019/tests/full_diverse_workflow/harris_single_molecule_prep_aims_dir/geometry
