lattice_vector 7.613371 0.0 0.0
lattice_vector 0.0 8.199995 0.0
lattice_vector 3.439527 0.0 4.621098
atom 8.85277 0.48645 1.63335 O
atom 8.06256 -0.35195 0.86801 C
atom 8.58307 -1.19644 0.43476 H
atom 6.79678 0.14261 0.87567 C
atom 5.31092 0.25352 0.56669 C
atom 4.68555 -0.55835 0.95988 H
atom 5.05853 0.41102 -0.48989 H
atom 5.31359 1.57164 1.44956 C
atom 4.68816 1.52041 2.35023 H
atom 5.06540 2.48935 0.90087 H
atom 6.79895 1.32311 1.66814 C
atom 8.06604 1.51408 2.12078 C
atom 8.58873 2.23363 2.73791 H
atom 2.20013 4.58645 2.98775 O
atom 2.99034 3.74804 3.75309 C
atom 2.46983 2.90355 4.18634 H
atom 4.25612 4.24260 3.74543 C
atom 5.74197 4.35352 4.05441 C
atom 6.36735 3.54164 3.66122 H
atom 5.99437 4.51101 5.11098 H
atom 5.73931 5.67164 3.17154 C
atom 6.36474 5.62041 2.27087 H
atom 5.98750 6.58934 3.72022 H
atom 4.25395 5.42311 2.95295 C
atom 2.98686 5.61407 2.50032 C
atom 2.46417 6.33363 1.88319 H
