lattice_vector 12.062572 0.0 0.0
lattice_vector 0.0 6.048129 0.0
lattice_vector -1.575997 0.0 3.72693
atom 9.48740 5.10010 1.22972 O
atom 8.56701 4.38155 0.48832 C
atom 8.24730 4.86176 -0.42764 H
atom 8.31129 3.22139 1.14823 C
atom 7.69705 1.86242 1.45065 C
atom 7.94407 1.06425 0.73879 H
atom 6.61212 1.86087 1.61739 H
atom 8.56975 1.85886 2.77551 C
atom 9.31810 1.05749 2.82837 H
atom 7.98745 1.85810 3.70598 H
atom 9.09458 3.21761 2.33486 C
atom 9.80526 4.37560 2.36401 C
atom 10.52360 4.85004 3.02030 H
atom 0.99918 5.10010 2.49721 O
atom 1.91957 4.38155 3.23861 C
atom 2.23928 4.86176 4.15457 H
atom 2.17529 3.22139 2.57870 C
atom 2.78953 1.86242 2.27628 C
atom 2.54251 1.06425 2.98814 H
atom 3.87445 1.86087 2.10954 H
atom 1.91683 1.85886 0.95142 C
atom 1.16848 1.05749 0.89856 H
atom 2.49912 1.85810 0.02095 H
atom 1.39199 3.21761 1.39207 C
atom 0.68132 4.37560 1.36292 C
atom -0.03702 4.85004 0.70663 H
