lattice_vector 20.198885 0.0 0.0
lattice_vector 0.0 3.253306 0.0
lattice_vector 1.861709 0.0 3.63078
atom 6.44284 1.42096 0.12676 O
atom 5.73028 0.50255 -0.62283 C
atom 6.23863 0.14862 -1.51059 H
atom 4.53780 0.29284 -0.00571 C
atom 3.14977 -0.27512 0.25183 C
atom 3.11050 -1.35474 0.44602 H
atom 2.39021 -0.02576 -0.50035 H
atom 3.11431 0.63151 1.55324 C
atom 3.05235 0.07474 2.49726 H
atom 2.33586 1.40536 1.54969 H
atom 4.50671 1.10430 1.16142 C
atom 5.68123 1.78523 1.22212 C
atom 6.14803 2.50595 1.88127 H
atom 15.61775 1.42096 3.50402 O
atom 16.33031 0.50255 4.25361 C
atom 15.82197 0.14862 5.14137 H
atom 17.52280 0.29284 3.63649 C
atom 18.91083 -0.27512 3.37895 C
atom 18.95009 -1.35474 3.18476 H
atom 19.67038 -0.02576 4.13113 H
atom 18.94629 0.63151 2.07754 C
atom 19.00825 0.07474 1.13353 H
atom 19.72474 1.40536 2.08109 H
atom 17.55388 1.10430 2.46936 C
atom 16.37936 1.78523 2.40866 C
atom 15.91256 2.50595 1.74951 H
