title geometry
lattice_vector 12.345910 0.000000 0.000000
lattice_vector 0.000000 5.621484 0.000000
lattice_vector -1.613391 0.000000 3.168109
0.000000 0.000000 0.000000 2.460816 5.678111 2.795562 /home/trose/genarris_mpi4py/merged_4_17_2019/tests/full_diverse_workflow/harris_single_molecule_prep_aims_dir/geometry
47.348298 -172.840847 48.383799 8.271706 5.678111 0.372538 /home/trose/genarris_mpi4py/merged_4_17_2019/tests/full_diverse_workflow/harris_single_molecule_prep_aims_dir/geometry
