lattice_vector 6.849509 0.0 0.0
lattice_vector 0.0 6.884504 0.0
lattice_vector -1.734276 0.0 6.679474
atom 2.89911 5.14550 2.67517 O
atom 2.10132 5.87538 1.81266 C
atom 2.63945 6.42068 1.04790 H
atom 0.80683 5.69425 2.18460 C
atom -0.70880 5.82939 2.17320 C
atom -1.21153 5.42688 1.28434 H
atom -1.09467 6.83832 2.36821 H
atom -0.71828 4.86311 3.43142 C
atom -1.22829 3.90479 3.26859 H
atom -1.10713 5.31632 4.35242 H
atom 0.79833 4.82706 3.31134 C
atom 2.08794 4.50452 3.59369 C
atom 2.61417 3.90037 4.32163 H
atom 2.03197 1.73900 6.01490 O
atom 1.23418 1.00912 5.15240 C
atom 1.77231 0.46383 4.38764 H
atom -0.06031 1.19025 5.52434 C
atom -1.57594 1.05511 5.51294 C
atom -2.07867 1.45762 4.62407 H
atom -1.96180 0.04618 5.70795 H
atom -1.58542 2.02140 6.77116 C
atom -2.09543 2.97972 6.60833 H
atom -1.97426 1.56818 7.69215 H
atom -0.06881 2.05744 6.65107 C
atom 1.22080 2.37998 6.93343 C
atom 1.74704 2.98413 7.66137 H
