title geometry
lattice_vector 6.849509 0.000000 0.000000
lattice_vector 0.000000 6.884504 0.000000
lattice_vector -1.734276 0.000000 6.679474
33.124556 -19.166721 -107.892376 1.057510 5.247445 2.739663 /home/trose/genarris_mpi4py/merged_4_17_2019/tests/full_diverse_workflow/harris_single_molecule_prep_aims_dir/geometry
-68.520704 -63.972536 13.997688 0.190371 1.637055 6.079399 /home/trose/genarris_mpi4py/merged_4_17_2019/tests/full_diverse_workflow/harris_single_molecule_prep_aims_dir/geometry
