lattice_vector 7.020835 0.0 0.0
lattice_vector 0.0 5.212861 0.0
lattice_vector -3.305598 0.0 5.673176
atom -2.06564 0.63726 0.01470 O
atom -1.02476 1.52097 0.23546 C
atom -1.03212 2.39882 -0.39788 H
atom -0.25009 1.01579 1.23122 C
atom 0.88955 0.91386 2.23439 C
atom 0.90564 1.69001 3.01039 H
atom 1.89448 0.82982 1.80089 H
atom 0.24927 -0.46375 2.69167 C
atom -0.10159 -0.48246 3.73165 H
atom 0.88436 -1.34221 2.51900 H
atom -0.82483 -0.21814 1.64199 C
atom -1.93335 -0.42951 0.88479 C
atom -2.70210 -1.18650 0.79650 H
atom 5.78088 3.24369 5.65848 O
atom 4.74000 4.12740 5.43772 C
atom 4.74735 5.00525 6.07105 H
atom 3.96533 3.62222 4.44196 C
atom 2.82569 3.52029 3.43879 C
atom 2.80960 4.29644 2.66279 H
atom 1.82076 3.43625 3.87228 H
atom 3.46597 2.14268 2.98151 C
atom 3.81682 2.12397 1.94153 H
atom 2.83088 1.26422 3.15418 H
atom 4.54007 2.38829 4.03119 C
atom 5.64859 2.17692 4.78839 C
atom 6.41734 1.41993 4.87668 H
