title geometry
lattice_vector 6.053871 0.000000 0.000000
lattice_vector 0.000000 12.592586 0.000000
lattice_vector 3.984077 0.000000 2.906221
100.943235 -110.418666 27.710043 6.587569 8.965099 1.584333 /home/trose/genarris_mpi4py/merged_4_17_2019/tests/full_diverse_workflow/harris_single_molecule_prep_aims_dir/geometry
-101.686910 -61.341725 -150.504297 6.587569 3.627483 1.584333 /home/trose/genarris_mpi4py/merged_4_17_2019/tests/full_diverse_workflow/harris_single_molecule_prep_aims_dir/geometry
