title geometry
lattice_vector 7.141717 0.000000 0.000000
lattice_vector 0.000000 13.375617 0.000000
lattice_vector 4.489444 0.000000 2.596537
0.000000 0.000000 0.000000 5.467871 10.172734 1.390379 /home/trose/genarris_mpi4py/merged_4_17_2019/tests/full_diverse_workflow/harris_single_molecule_prep_aims_dir/geometry
-143.391013 -48.673938 23.034954 3.223149 3.202880 0.092110 /home/trose/genarris_mpi4py/merged_4_17_2019/tests/full_diverse_workflow/harris_single_molecule_prep_aims_dir/geometry
