lattice_vector 6.586359 0.0 0.0
lattice_vector 0.0 11.186931 0.0
lattice_vector 2.88257 0.0 3.458192
atom 4.71082 9.53045 0.66133 O
atom 3.51348 10.19932 0.48215 C
atom 3.60122 11.16894 0.00894 H
atom 2.51784 9.41519 0.97274 C
atom 1.11256 8.97099 1.35144 C
atom 0.42343 8.81876 0.51076 H
atom 0.61094 9.58593 2.10979 H
atom 1.77594 7.64261 1.91022 C
atom 1.46756 6.72464 1.39325 H
atom 1.65893 7.49351 2.99138 H
atom 3.11230 8.22405 1.47216 C
atom 4.45323 8.31643 1.27153 C
atom 5.32806 7.70730 1.45979 H
atom 6.15211 1.65648 2.39043 O
atom 4.95477 0.98761 2.21125 C
atom 5.04250 0.01799 1.73803 H
atom 3.95913 1.77174 2.70184 C
atom 2.55385 2.21594 3.08054 C
atom 1.86471 2.36817 2.23985 H
atom 2.05223 1.60100 3.83888 H
atom 3.21722 3.54432 3.63931 C
atom 2.90885 4.46229 3.12235 H
atom 3.10022 3.69342 4.72048 H
atom 4.55359 2.96288 3.20126 C
atom 5.89451 2.87050 3.00063 C
atom 6.76934 3.47963 3.18889 H
