lattice_vector 2.978375 0.0 0.0
lattice_vector 0.0 8.657482 0.0
lattice_vector -6.889482 0.0 10.244589
atom -3.14766 5.58693 8.22702 O
atom -3.59668 4.45822 7.56558 C
atom -3.86797 4.61657 6.52966 H
atom -3.56954 3.42010 8.44217 C
atom -3.73102 2.00424 8.97583 C
atom -3.08743 1.24780 8.50848 H
atom -4.76009 1.62309 9.00039 H
atom -3.19786 2.55862 10.36338 C
atom -2.24834 2.12023 10.69689 H
atom -3.92097 2.49947 11.18706 H
atom -3.09029 3.91673 9.68528 C
atom -2.83905 5.24330 9.53056 C
atom -2.47489 6.05904 10.14194 H
atom 0.29708 3.07055 3.10473 O
atom -0.15194 4.19926 2.44329 C
atom -0.42323 4.04091 1.40737 H
atom -0.12480 5.23738 3.31988 C
atom -0.28628 6.65324 3.85353 C
atom 0.35731 7.40968 3.38619 H
atom -1.31535 7.03439 3.87809 H
atom 0.24688 6.09886 5.24108 C
atom 1.19640 6.53725 5.57459 H
atom -0.47623 6.15801 6.06477 H
atom 0.35445 4.74076 4.56298 C
atom 0.60569 3.41418 4.40827 C
atom 0.96985 2.59844 5.01965 H
