lattice_vector 9.14854 0.0 0.0
lattice_vector 0.0 8.049327 0.0
lattice_vector 4.066452 0.0 2.907372
atom 4.73764 5.62775 3.22355 O
atom 6.04603 5.42005 3.62116 C
atom 6.38645 6.06733 4.41924 H
atom 6.55986 4.41556 2.86366 C
atom 7.56939 3.40970 2.33013 C
atom 7.89833 2.64618 3.04683 H
atom 8.45475 3.84077 1.84518 H
atom 6.43467 2.93115 1.32998 C
atom 6.11120 1.89136 1.46862 H
atom 6.66512 3.08911 0.26848 H
atom 5.54238 3.98572 1.96834 C
atom 4.43759 4.74060 2.20596 C
atom 3.43001 4.81758 1.81780 H
atom 8.47735 1.60309 -0.31618 O
atom 7.16896 1.39539 -0.71379 C
atom 6.82854 2.04267 -1.51187 H
atom 6.65513 0.39089 0.04371 C
atom 5.64561 -0.61496 0.57724 C
atom 5.31666 -1.37848 -0.13946 H
atom 4.76024 -0.18390 1.06219 H
atom 6.78032 -1.09352 1.57739 C
atom 7.10379 -2.13330 1.43875 H
atom 6.54987 -0.93555 2.63889 H
atom 7.67261 -0.03894 0.93903 C
atom 8.77740 0.71594 0.70141 C
atom 9.78498 0.79292 1.08958 H
