lattice_vector 11.266219 0.0 0.0
lattice_vector 0.0 3.627028 0.0
lattice_vector -7.142293 0.0 6.122003
atom 2.41670 1.86101 3.59342 O
atom 2.38730 2.13356 4.94913 C
atom 1.51541 2.68104 5.28360 H
atom 3.51264 1.61335 5.50574 C
atom 4.53457 1.24962 6.57293 C
atom 4.18064 0.55856 7.34882 H
atom 5.03235 2.09848 7.05926 H
atom 5.37448 0.56626 5.41341 C
atom 5.50659 -0.51806 5.52204 H
atom 6.35538 1.02333 5.22967 H
atom 4.26461 0.99964 4.46673 C
atom 3.57588 1.16342 3.30669 C
atom 3.70057 0.89711 2.26489 H
atom 5.98784 1.76601 0.53241 O
atom 5.95845 1.49346 1.88813 C
atom 5.08655 0.94599 2.22260 H
atom 7.08379 2.01368 2.44474 C
atom 8.10572 2.37741 3.51193 C
atom 7.75179 3.06847 4.28782 H
atom 8.60350 1.52855 3.99826 H
atom 8.94562 3.06076 2.35241 C
atom 9.07774 4.14508 2.46104 H
atom 9.92653 2.60370 2.16867 H
atom 7.83575 2.62739 1.40573 C
atom 7.14702 2.46361 0.24569 C
atom 7.27171 2.72992 -0.79611 H
