lattice_vector 4.059736 0.0 0.0
lattice_vector 0.0 11.949329 0.0
lattice_vector -2.319039 0.0 3.592705
atom 1.31545 4.86703 2.47301 O
atom 0.11122 4.25628 2.17315 C
atom -0.45292 4.72946 1.37965 H
atom -0.03167 3.18458 2.99649 C
atom -0.65826 1.95136 3.63059 C
atom -0.78014 1.08829 2.96343 H
atom -1.60413 2.12163 4.16087 H
atom 0.62185 1.88753 4.56554 C
atom 1.23649 0.98687 4.43898 H
atom 0.41383 2.02389 5.63464 H
atom 1.11633 3.12659 3.83337 C
atom 1.92595 4.16463 3.49597 C
atom 2.88299 4.56018 3.81132 H
atom 1.31545 7.08229 2.47301 O
atom 0.11122 7.69305 2.17315 C
atom -0.45292 7.21987 1.37965 H
atom -0.03167 8.76475 2.99649 C
atom -0.65826 9.99797 3.63059 C
atom -0.78014 10.86104 2.96343 H
atom -1.60413 9.82770 4.16087 H
atom 0.62185 10.06180 4.56554 C
atom 1.23649 10.96246 4.43898 H
atom 0.41383 9.92544 5.63464 H
atom 1.11633 8.82274 3.83337 C
atom 1.92595 7.78470 3.49597 C
atom 2.88299 7.38915 3.81132 H
