title geometry
lattice_vector 17.928053 0.000000 0.000000
lattice_vector 0.000000 3.547159 0.000000
lattice_vector 4.824811 0.000000 4.522782
-148.402597 -89.781243 160.969715 15.341647 1.401589 2.574184 /home/trose/genarris_mpi4py/merged_4_17_2019/tests/full_diverse_workflow/harris_single_molecule_prep_aims_dir/geometry
-31.597455 -90.218870 -19.030369 7.411219 1.401589 1.948589 /home/trose/genarris_mpi4py/merged_4_17_2019/tests/full_diverse_workflow/harris_single_molecule_prep_aims_dir/geometry
