lattice_vector 15.132017 0.0 0.0
lattice_vector 0.0 4.978003 0.0
lattice_vector 2.443823 0.0 3.3816
atom 5.80533 5.13684 1.80991 O
atom 5.13492 4.54530 2.86526 C
atom 4.11450 4.88045 3.00024 H
atom 5.98452 3.66929 3.46328 C
atom 6.48981 2.62390 4.44683 C
atom 5.97960 1.65287 4.40656 H
atom 6.54534 2.94825 5.49401 H
atom 7.86843 2.67831 3.66368 C
atom 8.15395 1.73827 3.17399 H
atom 8.71806 3.03682 4.25903 H
atom 7.21957 3.71703 2.76043 C
atom 7.08717 4.62077 1.75415 C
atom 7.70333 5.01840 0.95788 H
atom 11.77051 5.13684 1.57169 O
atom 12.44092 4.54530 0.51634 C
atom 13.46133 4.88045 0.38136 H
atom 11.59132 3.66929 -0.08168 C
atom 11.08603 2.62390 -1.06523 C
atom 11.59624 1.65287 -1.02496 H
atom 11.03050 2.94825 -2.11241 H
atom 9.70740 2.67831 -0.28208 C
atom 9.42189 1.73827 0.20762 H
atom 8.85778 3.03682 -0.87743 H
atom 10.35627 3.71703 0.62117 C
atom 10.48867 4.62077 1.62745 C
atom 9.87251 5.01840 2.42372 H
