lattice_vector 3.000939 0.0 0.0
lattice_vector 4.0484098340683393e-16 6.611555 0.0
lattice_vector 7.225266708059888e-16 7.225266708059888e-16 11.799756
atom 0.59176 1.31944 12.26344 C
atom 0.59176 0.25814 13.17440 C
atom 0.59176 -1.06134 12.71070 C
atom 0.59176 -1.31944 11.33607 C
atom 0.59176 -0.25814 10.42511 C
atom 0.59176 1.06134 10.88881 C
atom 0.59176 2.34912 12.62529 H
atom 0.59176 0.45976 14.24702 H
atom 0.59176 -1.88966 13.42139 H
atom 0.59176 -2.34912 10.97422 H
atom 0.59176 -0.45976 9.35249 H
atom 0.59176 1.88966 10.17812 H
atom 2.40918 1.98633 6.36356 C
atom 2.40918 3.04764 7.27452 C
atom 2.40918 4.36712 6.81082 C
atom 2.40918 4.62522 5.43620 C
atom 2.40918 3.56392 4.52524 C
atom 2.40918 2.24443 4.98893 C
atom 2.40918 0.95666 6.72541 H
atom 2.40918 2.84602 8.34715 H
atom 2.40918 5.19544 7.52151 H
atom 2.40918 5.65490 5.07435 H
atom 2.40918 3.76554 3.45261 H
atom 2.40918 1.41612 4.27824 H
