lattice_vector 6.35304499 -3.308722450212111e-24 8.271806125530277e-25
lattice_vector -2.4309789885192708e-08 6.655454997246899 -4.440892098500626e-16
lattice_vector 1.382685790253532e-08 -3.3265103710961066 5.76793276589853
atom 0.88349 3.56997 0.54561 C
atom 0.88349 2.25600 1.02638 C
atom 0.88349 2.01527 2.40097 C
atom 0.88349 3.08860 3.29845 C
atom 0.88349 4.39941 2.81960 C
atom 0.88349 4.64008 1.44132 C
atom 0.88349 3.75644 -0.52814 H
atom 0.88349 1.42212 0.32296 H
atom 0.88349 0.99215 2.77640 H
atom 0.88349 2.89650 4.37237 H
atom 0.88349 5.23597 3.51807 H
atom 0.88349 5.66614 1.07071 H
atom 4.06002 1.31368 3.36697 C
atom 4.06002 0.24035 2.46948 C
atom 4.06002 -1.07046 2.94834 C
atom 4.06002 -1.31113 4.32662 C
atom 4.06002 -0.24103 5.22232 C
atom 4.06002 1.07294 4.74156 C
atom 4.06002 2.33679 2.99154 H
atom 4.06002 0.43245 1.39557 H
atom 4.06002 -1.90703 2.24987 H
atom 4.06002 -2.33720 4.69723 H
atom 4.06002 -0.42750 6.29608 H
atom 4.06002 1.90683 5.44498 H
