# 
# This is the geometry file that corresponds to the current relaxation step.
# If you do not want this file to be written, set the "write_restart_geometry" flag to .false.
#  aims_uuid : 40D74B84-BD96-4D70-A23B-476D50CF73B4                                
# 
lattice_vector      6.35304499     -0.00000001      0.00000001
lattice_vector     -0.00000000      6.65964869     -0.00020417
lattice_vector      0.00000001     -3.32667161      5.76440259
atom       0.88349345     -1.06968482      2.94510795 C
atom       0.88349346     -1.31006741      4.32346913 C
atom       0.88349346     -0.23983908      5.21904713 C
atom       0.88349346      1.07398410      4.73802095 C
atom       0.88349345      1.31443472      3.36335344 C
atom       0.88349345      0.24098047      2.46598445 C
atom       0.88349348     -1.90648188      2.24689737 H
atom       0.88349351     -2.33611942      4.69411137 H
atom       0.88349349     -0.42606872      6.29284037 H
atom       0.88349351      1.90809633      5.44118805 H
atom       0.88349348      2.33753879      2.98791435 H
atom       0.88349350      0.43285634      1.39204423 H
atom       4.06001565      3.57281703      0.54515295 C
atom       4.06001566      2.25899377      1.02617895 C
atom       4.06001566      2.01854335      2.40084672 C
atom       4.06001566      3.09199768      3.29821548 C
atom       4.06001566      4.40266315      2.81909206 C
atom       4.06001566      4.64304554      1.44073071 C
atom       4.06001562      3.75904718     -0.52863984 H
atom       4.06001560      1.42488174      0.32301159 H
atom       4.06001563      0.99543922      2.77628592 H
atom       4.06001561      2.90012116      4.37215527 H
atom       4.06001563      5.23946037      3.51730233 H
atom       4.06001561      5.66909754      1.07008841 H
