lattice_vector 16.37834 0.0 0.0
lattice_vector 0.0 4.340037 0.0
lattice_vector 2.562207 0.0 3.99929
atom 10.93653 3.49941 2.03517 O
atom 11.78834 4.56342 1.79982 C
atom 11.78287 5.32783 2.56627 H
atom 12.42196 4.33974 0.61858 C
atom 13.35171 4.57232 -0.56337 C
atom 14.42296 4.58888 -0.32466 H
atom 13.11678 5.44636 -1.18445 H
atom 12.82487 3.19108 -1.13914 C
atom 13.59266 2.41235 -1.23442 H
atom 12.28374 3.26963 -2.09090 H
atom 11.95084 3.10110 0.10335 C
atom 11.04363 2.60542 0.98547 C
atom 10.41461 1.72839 1.06898 H
atom 8.00402 3.49941 1.96412 O
atom 7.15220 4.56342 2.19947 C
atom 7.15768 5.32783 1.43302 H
atom 6.51858 4.33974 3.38071 C
atom 5.58884 4.57232 4.56266 C
atom 4.51759 4.58888 4.32395 H
atom 5.82377 5.44636 5.18374 H
atom 6.11567 3.19108 5.13843 C
atom 5.34788 2.41235 5.23371 H
atom 6.65680 3.26963 6.09019 H
atom 6.98971 3.10110 3.89594 C
atom 7.89692 2.60542 3.01382 C
atom 8.52594 1.72839 2.93031 H
