title geometry
lattice_vector 5.600707 0.000000 0.000000
lattice_vector 0.000000 12.458231 0.000000
lattice_vector -2.141009 0.000000 2.973366
0.000000 0.000000 0.000000 -0.484496 2.647297 1.844351 /home/trose/genarris_mpi4py/merged_4_17_2019/tests/full_diverse_workflow/harris_single_molecule_prep_aims_dir/geometry
-103.902964 -178.348298 -104.173347 3.944195 8.876413 1.129006 /home/trose/genarris_mpi4py/merged_4_17_2019/tests/full_diverse_workflow/harris_single_molecule_prep_aims_dir/geometry
