lattice_vector 4.665339 0.0 0.0
lattice_vector 0.0 17.844095 0.0
lattice_vector 3.431991 0.0 3.31839
atom 1.85020 6.54787 -0.40251 O
atom 0.64343 6.04616 -0.85541 C
atom 0.06739 6.73013 -1.46546 H
atom 0.51435 4.77738 -0.38600 C
atom -0.10060 3.40752 -0.13928 C
atom -0.22953 2.78085 -1.03119 H
atom -1.03953 3.40659 0.42928 H
atom 1.19232 3.07693 0.71861 C
atom 1.80731 2.25842 0.32258 H
atom 0.99861 2.88821 1.78242 H
atom 1.67380 4.48065 0.38163 C
atom 2.47628 5.57716 0.35793 C
atom 3.43659 5.86721 0.76473 H
atom 1.85020 11.29622 -0.40251 O
atom 0.64343 11.79793 -0.85541 C
atom 0.06739 11.11396 -1.46546 H
atom 0.51435 13.06672 -0.38600 C
atom -0.10060 14.43657 -0.13928 C
atom -0.22953 15.06324 -1.03119 H
atom -1.03953 14.43751 0.42928 H
atom 1.19232 14.76717 0.71861 C
atom 1.80731 15.58568 0.32258 H
atom 0.99861 14.95588 1.78242 H
atom 1.67380 13.36345 0.38163 C
atom 2.47628 12.26694 0.35793 C
atom 3.43659 11.97688 0.76473 H
