lattice_vector 7.787787 0.0 0.0
lattice_vector 0.0 8.695077 0.0
lattice_vector -4.461757 0.0 3.182712
atom -1.05689 6.30921 1.01674 O
atom -2.34318 5.93980 0.66730 C
atom -2.46567 5.64362 -0.36666 H
atom -3.12751 6.05761 1.77083 C
atom -4.37603 6.01614 2.63975 C
atom -4.81106 5.02012 2.79308 H
atom -5.17697 6.70826 2.34935 H
atom -3.45999 6.52687 3.83010 C
atom -3.36882 5.82640 4.67036 H
atom -3.73147 7.51485 4.22383 H
atom -2.30615 6.51392 2.83796 C
atom -1.04476 6.66105 2.35414 C
atom -0.07928 6.96902 2.73469 H
atom -1.05689 2.38586 1.01674 O
atom -2.34318 2.75527 0.66730 C
atom -2.46567 3.05145 -0.36666 H
atom -3.12751 2.63746 1.77083 C
atom -4.37603 2.67893 2.63975 C
atom -4.81106 3.67496 2.79308 H
atom -5.17697 1.98682 2.34935 H
atom -3.45999 2.16821 3.83010 C
atom -3.36882 2.86868 4.67036 H
atom -3.73147 1.18023 4.22383 H
atom -2.30615 2.18115 2.83796 C
atom -1.04476 2.03403 2.35414 C
atom -0.07928 1.72606 2.73469 H
