title geometry
lattice_vector 7.787787 0.000000 0.000000
lattice_vector 0.000000 8.695077 0.000000
lattice_vector -4.461757 0.000000 3.182712
-104.836597 -43.560314 57.528893 -2.515264 6.289513 2.147586 /home/trose/genarris_mpi4py/merged_4_17_2019/tests/full_diverse_workflow/harris_single_molecule_prep_aims_dir/geometry
-160.820386 -21.523664 93.986567 -2.515264 2.405560 2.147586 /home/trose/genarris_mpi4py/merged_4_17_2019/tests/full_diverse_workflow/harris_single_molecule_prep_aims_dir/geometry
