lattice_vector 9.910799 0.0 0.0
lattice_vector 0.0 10.436574 0.0
lattice_vector -2.376595 0.0 3.217015
atom 8.93917 2.54579 3.40412 O
atom 7.92740 1.64655 3.68843 C
atom 8.14354 0.96042 4.49732 H
atom 6.89917 1.88844 2.83341 C
atom 5.54079 1.73986 2.16389 C
atom 4.67395 1.94598 2.80493 H
atom 5.37303 0.78921 1.64140 H
atom 5.96830 2.94446 1.22417 C
atom 5.34668 3.84394 1.32185 H
atom 6.04963 2.68710 0.16022 H
atom 7.28181 2.96901 1.99223 C
atom 8.53230 3.35470 2.35882 C
atom 9.25472 4.10068 2.05314 H
atom 8.93917 7.89079 3.40412 O
atom 7.92740 8.79002 3.68843 C
atom 8.14354 9.47615 4.49732 H
atom 6.89917 8.54813 2.83341 C
atom 5.54079 8.69672 2.16389 C
atom 4.67395 8.49060 2.80493 H
atom 5.37303 9.64737 1.64140 H
atom 5.96830 7.49212 1.22417 C
atom 5.34668 6.59264 1.32185 H
atom 6.04963 7.74947 0.16022 H
atom 7.28181 7.46756 1.99223 C
atom 8.53230 7.08187 2.35882 C
atom 9.25472 6.33590 2.05314 H
