lattice_vector 5.204789537418396 0.0 0.0
lattice_vector -2.0426056968584385 5.692478452159609 0.0
lattice_vector 5.533145895771807e-16 7.864008490239479e-16 9.036313
atom 4.18758 5.63310 1.79623 C
atom 3.07836 6.24665 2.38735 C
atom 1.97328 5.47770 2.76625 C
atom 1.97748 4.09525 2.55401 C
atom 3.08670 3.48171 1.96289 C
atom 4.19178 4.25066 1.58399 C
atom 5.04995 6.23316 1.50056 H
atom 3.07529 7.32543 2.55289 H
atom 1.10762 5.95627 3.22754 H
atom 1.11511 3.49520 2.84969 H
atom 3.08977 2.40293 1.79736 H
atom 5.05743 3.77208 1.12270 H
atom 4.18758 5.63310 7.24008 C
atom 3.07836 6.24665 6.64896 C
atom 1.97328 5.47770 6.27006 C
atom 1.97748 4.09525 6.48230 C
atom 3.08670 3.48171 7.07342 C
atom 4.19178 4.25066 7.45232 C
atom 5.04995 6.23316 7.53576 H
atom 3.07529 7.32543 6.48343 H
atom 1.10762 5.95627 5.80877 H
atom 1.11511 3.49520 6.18662 H
atom 3.08977 2.40293 7.23896 H
atom 5.05743 3.77208 7.91361 H
