lattice_vector 7.410071 0.0 0.0
lattice_vector 0.0 6.776623 0.0
lattice_vector 5.136064 0.0 3.873187
atom 10.14779 3.38697 4.06891 O
atom 10.34072 2.36843 3.15323 C
atom 11.26994 2.42428 2.60075 H
atom 9.26017 1.54604 3.20721 C
atom 8.34656 0.37416 2.87926 C
atom 8.75041 -0.61898 3.11464 H
atom 7.94771 0.35776 1.85676 H
atom 7.35090 0.95706 3.96820 C
atom 7.17909 0.29915 4.82997 H
atom 6.37905 1.27924 3.57254 H
atom 8.36856 2.06770 4.18422 C
atom 8.93140 3.19305 4.69769 C
atom 8.67903 3.93940 5.44004 H
atom 7.57975 3.38965 2.13232 O
atom 7.77269 4.40819 1.21664 C
atom 8.70191 4.35234 0.66416 H
atom 6.69214 5.23058 1.27062 C
atom 5.77852 6.40246 0.94267 C
atom 6.18238 7.39560 1.17805 H
atom 5.37967 6.41887 -0.07983 H
atom 4.78286 5.81956 2.03161 C
atom 4.61106 6.47748 2.89337 H
atom 3.81102 5.49738 1.63594 H
atom 5.80053 4.70892 2.24762 C
atom 6.36337 3.58357 2.76109 C
atom 6.11100 2.83722 3.50345 H
