lattice_vector 21.293133 0.0 0.0
lattice_vector 0.0 5.107111 0.0
lattice_vector -1.519555 0.0 2.787689
atom 7.04766 2.71086 2.26962 O
atom 5.83218 2.09243 2.03882 C
atom 5.77334 1.06586 2.37718 H
atom 5.01598 2.98853 1.42428 C
atom 3.76845 3.55647 0.76349 C
atom 2.88604 3.63578 1.41148 H
atom 3.47125 3.07509 -0.17716 H
atom 4.58153 4.90727 0.58701 C
atom 4.16666 5.76554 1.13130 H
atom 4.75531 5.20284 -0.45572 H
atom 5.74427 4.19958 1.26749 C
atom 6.98344 4.00677 1.79106 C
atom 7.88897 4.58533 1.92184 H
atom 12.72592 2.71086 0.51807 O
atom 13.94140 2.09243 0.74887 C
atom 14.00024 1.06586 0.41051 H
atom 14.75760 2.98853 1.36341 C
atom 16.00513 3.55647 2.02420 C
atom 16.88753 3.63578 1.37621 H
atom 16.30233 3.07509 2.96484 H
atom 15.19205 4.90727 2.20068 C
atom 15.60692 5.76554 1.65638 H
atom 15.01826 5.20284 3.24341 H
atom 14.02931 4.19958 1.52020 C
atom 12.79014 4.00677 0.99662 C
atom 11.88460 4.58533 0.86585 H
