title geometry
lattice_vector 5.313077 0.000000 0.000000
lattice_vector 0.000000 14.640312 0.000000
lattice_vector 1.337629 0.000000 3.228497
-129.943944 -103.303240 23.635651 0.776787 10.734540 1.240835 /home/trose/genarris_mpi4py/merged_4_17_2019/tests/full_diverse_workflow/harris_single_molecule_prep_aims_dir/geometry
125.356390 -54.412930 -145.514203 1.445601 3.905768 2.855083 /home/trose/genarris_mpi4py/merged_4_17_2019/tests/full_diverse_workflow/harris_single_molecule_prep_aims_dir/geometry
