title geometry
lattice_vector 5.919821 0.000000 0.000000
lattice_vector 0.000000 17.729275 0.000000
lattice_vector 3.947097 0.000000 2.804476
-22.947960 -120.119198 -179.782445 6.547078 12.342421 2.627454 /home/trose/genarris_mpi4py/merged_4_17_2019/tests/full_diverse_workflow/harris_single_molecule_prep_aims_dir/geometry
77.631712 -154.670727 100.030127 6.547078 5.386851 2.627454 /home/trose/genarris_mpi4py/merged_4_17_2019/tests/full_diverse_workflow/harris_single_molecule_prep_aims_dir/geometry
