lattice_vector 5.385212 0.0 0.0
lattice_vector 0.0 14.697563 0.0
lattice_vector 1.006077 0.0 3.044786
atom 1.44520 1.76048 2.48738 O
atom 0.86257 2.94438 2.90216 C
atom -0.07645 2.82868 3.42813 H
atom 1.66987 3.96687 2.51536 C
atom 2.17060 5.39164 2.32871 C
atom 2.42000 5.92877 3.25290 H
atom 1.53698 6.03752 1.70724 H
atom 3.41634 4.76328 1.57361 C
atom 4.38382 4.94007 2.06118 H
atom 3.49895 5.04495 0.51593 H
atom 2.78704 3.40354 1.83992 C
atom 2.62853 2.05383 1.83454 C
atom 3.17030 1.19222 1.46586 H
atom 1.44520 12.93708 2.48738 O
atom 0.86257 11.75318 2.90216 C
atom -0.07645 11.86888 3.42813 H
atom 1.66987 10.73069 2.51536 C
atom 2.17060 9.30592 2.32871 C
atom 2.42000 8.76879 3.25290 H
atom 1.53698 8.66005 1.70724 H
atom 3.41634 9.93429 1.57361 C
atom 4.38382 9.75749 2.06118 H
atom 3.49895 9.65261 0.51593 H
atom 2.78704 11.29402 1.83992 C
atom 2.62853 12.64373 1.83454 C
atom 3.17030 13.50534 1.46586 H
