lattice_vector 10.243629 0.0 0.0
lattice_vector 0.0 5.835677 0.0
lattice_vector 3.471961 0.0 2.814419
atom 10.06506 4.38198 0.03973 O
atom 9.07883 3.52198 -0.40844 C
atom 8.74853 3.69938 -1.42394 H
atom 8.78863 2.65616 0.59803 C
atom 8.11581 1.50970 1.33861 C
atom 8.29137 0.51029 0.92004 H
atom 7.03990 1.63072 1.51927 H
atom 9.03957 1.87960 2.57422 C
atom 9.74588 1.09278 2.86926 H
atom 8.49587 2.21657 3.46623 H
atom 9.61762 2.98681 1.70487 C
atom 10.38932 4.04465 1.34111 C
atom 11.15758 4.65942 1.79239 H
atom 3.65053 7.29982 2.77469 O
atom 4.63676 6.43981 3.22286 C
atom 4.96706 6.61722 4.23836 H
atom 4.92696 5.57400 2.21639 C
atom 5.59978 4.42753 1.47581 C
atom 5.42421 3.42813 1.89437 H
atom 6.67569 4.54855 1.29515 H
atom 4.67602 4.79744 0.24020 C
atom 3.96971 4.01062 -0.05484 H
atom 5.21972 5.13441 -0.65181 H
atom 4.09797 5.90465 1.10955 C
atom 3.32627 6.96249 1.47331 C
atom 2.55801 7.57726 1.02203 H
