lattice_vector 9.186705 0.0 0.0
lattice_vector 0.0 6.859634 0.0
lattice_vector -1.400467 0.0 3.879138
atom 7.82806 6.76104 0.19318 O
atom 7.04260 5.98223 -0.63726 C
atom 6.93982 6.35662 -1.64773 H
atom 6.60070 4.91698 0.08163 C
atom 5.87082 3.62055 0.40114 C
atom 6.21703 2.73635 -0.14947 H
atom 4.77594 3.66691 0.33831 H
atom 6.45518 3.75426 1.87000 C
atom 7.13628 2.94618 2.16684 H
atom 5.69686 3.88054 2.65348 H
atom 7.12567 5.03611 1.39762 C
atom 7.87253 6.17057 1.44295 C
atom 8.46549 6.70205 2.17626 H
atom -0.04182 3.33122 3.68596 O
atom 0.74363 2.55241 4.51639 C
atom 0.84642 2.92680 5.52687 H
atom 1.18554 1.48716 3.79751 C
atom 1.91542 0.19073 3.47800 C
atom 1.56921 -0.69346 4.02861 H
atom 3.01030 0.23710 3.54083 H
atom 1.33105 0.32444 2.00914 C
atom 0.64996 -0.48364 1.71230 H
atom 2.08938 0.45073 1.22566 H
atom 0.66057 1.60630 2.48151 C
atom -0.08629 2.74076 2.43619 C
atom -0.67925 3.27224 1.70287 H
