lattice_vector 12.308742 0.0 0.0
lattice_vector 0.0 3.863921 0.0
lattice_vector 0.956718 0.0 5.142519
atom 10.55093 0.56894 3.90870 O
atom 9.24943 0.67630 3.45296 C
atom 8.50986 0.18230 4.07005 H
atom 9.26568 1.40542 2.30625 C
atom 8.74648 2.11693 1.06539 C
atom 8.07909 2.96770 1.25410 H
atom 8.28521 1.47000 0.30805 H
atom 10.25344 2.51338 0.76738 C
atom 10.45421 3.59248 0.78207 H
atom 10.66149 2.09241 -0.16058 H
atom 10.61611 1.76193 2.04003 C
atom 11.38412 1.23987 3.03224 C
atom 12.43371 1.21899 3.29634 H
atom 2.71453 0.56894 1.23382 O
atom 4.01603 0.67630 1.68956 C
atom 4.75560 0.18230 1.07247 H
atom 3.99978 1.40542 2.83627 C
atom 4.51897 2.11693 4.07713 C
atom 5.18637 2.96770 3.88842 H
atom 4.98025 1.47000 4.83447 H
atom 3.01202 2.51338 4.37514 C
atom 2.81125 3.59248 4.36045 H
atom 2.60397 2.09241 5.30310 H
atom 2.64935 1.76193 3.10249 C
atom 1.88134 1.23987 2.11028 C
atom 0.83175 1.21899 1.84618 H
