lattice_vector 28.16058 0.0 0.0
lattice_vector 0.0 2.967059 0.0
lattice_vector -3.929747 0.0 3.57952
atom 4.58915 0.25104 1.57787 O
atom 4.60979 0.24525 2.96086 C
atom 3.67469 -0.03624 3.42793 H
atom 5.85532 0.61101 3.36299 C
atom 7.00645 0.94646 4.29995 C
atom 7.36451 0.11678 4.92305 H
atom 6.85438 1.82561 4.93935 H
atom 7.87317 1.21690 2.99897 C
atom 8.73191 0.54476 2.87333 H
atom 8.21824 2.25290 2.88727 H
atom 6.63244 0.85194 2.19694 C
atom 5.83819 0.62600 1.11761 C
atom 5.93346 0.66342 0.03995 H
atom 19.64169 1.73457 2.00165 O
atom 19.62105 1.72878 0.61866 C
atom 20.55614 1.44729 0.15159 H
atom 18.37552 2.09454 0.21653 C
atom 17.22438 2.42999 -0.72043 C
atom 16.86633 1.60031 -1.34353 H
atom 17.37646 3.30914 -1.35983 H
atom 16.35766 2.70043 0.58055 C
atom 15.49892 2.02829 0.70619 H
atom 16.01259 3.73643 0.69225 H
atom 17.59839 2.33547 1.38257 C
atom 18.39264 2.10953 2.46191 C
atom 18.29738 2.14695 3.53957 H
