title geometry
lattice_vector 28.160580 0.000000 0.000000
lattice_vector 0.000000 2.967059 0.000000
lattice_vector -3.929747 0.000000 3.579520
-133.741328 -122.095594 135.857309 6.042424 0.673984 2.633874 /home/trose/genarris_mpi4py/merged_4_17_2019/tests/full_diverse_workflow/harris_single_molecule_prep_aims_dir/geometry
-46.258792 -57.904735 -44.142661 18.188411 2.157514 0.945637 /home/trose/genarris_mpi4py/merged_4_17_2019/tests/full_diverse_workflow/harris_single_molecule_prep_aims_dir/geometry
