lattice_vector 6.033556 0.0 0.0
lattice_vector 0.0 4.966723 0.0
lattice_vector 1.381043 0.0 10.672953
atom 6.56485 1.77197 6.47185 O
atom 7.26880 0.99627 7.37510 C
atom 8.30671 0.82832 7.11755 H
atom 6.42083 0.64728 8.37809 C
atom 5.93094 0.00666 9.66849 C
atom 6.40195 0.37793 10.58780 H
atom 5.94395 -1.09079 9.68575 H
atom 4.51507 0.64625 9.34732 C
atom 4.16899 1.38434 10.08247 H
atom 3.71261 -0.08298 9.17669 H
atom 5.15231 1.22176 8.09092 C
atom 5.26365 1.90446 6.92115 C
atom 4.62061 2.49791 6.28386 H
atom 5.87433 3.19475 1.13537 O
atom 6.57828 3.97045 2.03862 C
atom 7.61619 4.13840 1.78108 H
atom 5.73031 4.31945 3.04161 C
atom 5.24042 4.96007 4.33201 C
atom 5.71143 4.58879 5.25132 H
atom 5.25343 6.05752 4.34927 H
atom 3.82455 4.32048 4.01085 C
atom 3.47847 3.58238 4.74600 H
atom 3.02209 5.04971 3.84021 H
atom 4.46179 3.74496 2.75445 C
atom 4.57313 3.06226 1.58467 C
atom 3.93009 2.46881 0.94738 H
