lattice_vector 7.518367 0.0 0.0
lattice_vector 0.0 7.514912 0.0
lattice_vector 3.827112 0.0 4.455829
atom 3.72243 6.90954 0.17063 O
atom 3.80159 5.64226 -0.37787 C
atom 4.36872 5.58008 -1.29781 H
atom 3.11391 4.79243 0.42942 C
atom 2.51338 3.49243 0.94409 C
atom 3.23788 2.72147 1.23657 H
atom 1.75452 3.03379 0.29705 H
atom 1.92863 4.34061 2.15055 C
atom 2.31425 4.05717 3.13846 H
atom 0.83245 4.37302 2.19704 H
atom 2.59113 5.55241 1.51144 C
atom 2.97530 6.84363 1.33253 C
atom 2.84988 7.78788 1.84681 H
atom 5.63599 0.60537 2.39855 O
atom 5.71515 1.87265 1.85004 C
atom 6.28228 1.93483 0.93010 H
atom 5.02747 2.72248 2.65733 C
atom 4.42693 4.02248 3.17200 C
atom 5.15144 4.79344 3.46449 H
atom 3.66807 4.48112 2.52497 H
atom 3.84219 3.17430 4.37847 C
atom 4.22781 3.45775 5.36637 H
atom 2.74600 3.14189 4.42496 H
atom 4.50469 1.96250 3.73935 C
atom 4.88886 0.67128 3.56044 C
atom 4.76343 -0.27297 4.07473 H
