lattice_vector 3.553445 0.0 0.0
lattice_vector 0.0 16.082899 0.0
lattice_vector -4.78681 0.0 4.729886
atom -1.41707 13.28352 2.79570 O
atom -2.20204 12.79838 1.76537 C
atom -2.20035 13.40486 0.86872 H
atom -2.78106 11.64368 2.18755 C
atom -3.63654 10.38571 2.15279 C
atom -3.32558 9.62380 1.42642 H
atom -4.71646 10.55151 2.04722 H
atom -3.15076 10.11808 3.63916 C
atom -2.56186 9.20097 3.76998 H
atom -3.95069 10.13247 4.39066 H
atom -2.34448 11.40312 3.51914 C
atom -1.51183 12.41814 3.87025 C
atom -0.93158 12.70508 4.73789 H
atom -1.41707 2.79938 2.79570 O
atom -2.20204 3.28451 1.76537 C
atom -2.20035 2.67804 0.86872 H
atom -2.78106 4.43922 2.18755 C
atom -3.63654 5.69719 2.15279 C
atom -3.32558 6.45910 1.42642 H
atom -4.71646 5.53138 2.04722 H
atom -3.15076 5.96482 3.63916 C
atom -2.56186 6.88193 3.76998 H
atom -3.95069 5.95043 4.39066 H
atom -2.34448 4.67978 3.51914 C
atom -1.51183 3.66476 3.87025 C
atom -0.93158 3.37782 4.73789 H
