lattice_vector 3.241407 0.0 0.0
lattice_vector 0.0 6.557172 0.0
lattice_vector -7.284161 0.0 11.199716
atom 0.45531 3.68086 0.40942 O
atom 0.48814 2.30511 0.27032 C
atom 0.34696 1.94737 -0.74156 H
atom 0.69832 1.76447 1.49928 C
atom 0.90257 0.70327 2.57058 C
atom 1.81396 0.10002 2.46917 H
atom 0.05208 0.02944 2.73635 H
atom 1.01305 1.89678 3.60992 C
atom 1.98712 1.98012 4.10916 H
atom 0.22431 1.91226 4.37313 H
atom 0.79879 2.83424 2.43047 C
atom 0.64702 3.99620 1.74222 C
atom 0.63957 5.05559 1.96461 H
atom -3.18677 2.87631 6.00928 O
atom -3.15394 4.25206 5.87017 C
atom -3.29512 4.60980 4.85830 H
atom -2.94376 4.79270 7.09914 C
atom -2.73951 5.85390 8.17044 C
atom -1.82812 6.45715 8.06903 H
atom -3.59000 6.52773 8.33621 H
atom -2.62903 4.66040 9.20977 C
atom -1.65496 4.57705 9.70902 H
atom -3.41777 4.64491 9.97299 H
atom -2.84329 3.72293 8.03033 C
atom -2.99506 2.56098 7.34208 C
atom -3.00251 1.50159 7.56446 H
