lattice_vector 4.704782 0.0 0.0
lattice_vector 0.0 16.702822 0.0
lattice_vector -1.615879 0.0 3.90317
atom 3.72583 10.43658 3.16518 O
atom 3.79030 9.39557 2.25674 C
atom 4.62700 9.44184 1.57148 H
atom 2.73705 8.56927 2.49071 C
atom 1.79552 7.38454 2.33109 C
atom 2.23866 6.39997 2.52877 H
atom 1.24994 7.33947 1.37969 H
atom 0.96675 7.99042 3.54062 C
atom 0.93026 7.35427 4.43448 H
atom -0.05579 8.29716 3.28537 H
atom 1.99517 9.11156 3.57569 C
atom 2.61766 10.25279 3.97185 C
atom 2.47122 11.01689 4.72453 H
atom -0.63693 2.08517 0.73799 O
atom -0.70139 1.04416 1.64643 C
atom -1.53810 1.09043 2.33169 H
atom 0.35185 0.21786 1.41246 C
atom 1.29338 -0.96687 1.57208 C
atom 0.85025 -1.95144 1.37440 H
atom 1.83896 -1.01194 2.52348 H
atom 2.12215 -0.36100 0.36255 C
atom 2.15865 -0.99714 -0.53131 H
atom 3.14470 -0.05425 0.61780 H
atom 1.09373 0.76015 0.32748 C
atom 0.47124 1.90138 -0.06868 C
atom 0.61769 2.66548 -0.82136 H
