lattice_vector 14.470704 0.0 0.0
lattice_vector 0.0 5.942184 0.0
lattice_vector -0.376092 0.0 2.729437
atom 11.75046 6.50616 0.94222 O
atom 10.59559 5.82486 1.28165 C
atom 9.79136 6.44916 1.64945 H
atom 10.80460 4.50272 1.04698 C
atom 10.52304 3.00914 0.97297 C
atom 9.73470 2.71211 0.26931 H
atom 10.33904 2.51477 1.93558 H
atom 11.99996 2.84565 0.41722 C
atom 12.06306 2.45236 -0.60569 H
atom 12.66797 2.25925 1.06121 H
atom 12.12777 4.35645 0.54751 C
atom 12.68715 5.59374 0.49206 C
atom 13.63595 6.02368 0.19753 H
atom 2.34415 6.50616 1.78722 O
atom 3.49903 5.82486 1.44779 C
atom 4.30325 6.44916 1.07999 H
atom 3.29001 4.50272 1.68246 C
atom 3.57158 3.00914 1.75647 C
atom 4.35991 2.71211 2.46013 H
atom 3.75557 2.51477 0.79386 H
atom 2.09465 2.84565 2.31222 C
atom 2.03155 2.45236 3.33513 H
atom 1.42664 2.25925 1.66823 H
atom 1.96684 4.35645 2.18193 C
atom 1.40746 5.59374 2.23737 C
atom 0.45867 6.02368 2.53191 H
