lattice_vector 6.053871 0.0 0.0
lattice_vector 0.0 12.592586 0.0
lattice_vector 3.984077 0.0 2.906221
atom 4.75916 9.21533 1.56561 O
atom 5.71074 10.21645 1.49230 C
atom 5.31016 11.21936 1.41807 H
atom 6.93727 9.63292 1.53639 C
atom 8.45382 9.50818 1.54460 C
atom 8.95982 9.96324 2.40582 H
atom 8.95974 9.83516 0.62700 H
atom 8.23817 7.94054 1.65816 C
atom 8.62178 7.49170 2.58358 H
atom 8.61747 7.36431 0.80438 H
atom 6.74391 8.22808 1.63966 C
atom 5.40502 7.99578 1.65560 C
atom 4.74883 7.13714 1.71870 H
atom 4.75916 3.37726 1.56561 O
atom 5.71074 2.37614 1.49230 C
atom 5.31016 1.37323 1.41807 H
atom 6.93727 2.95966 1.53639 C
atom 8.45382 3.08441 1.54460 C
atom 8.95982 2.62935 2.40582 H
atom 8.95974 2.75743 0.62700 H
atom 8.23817 4.65205 1.65816 C
atom 8.62178 5.10088 2.58358 H
atom 8.61747 5.22828 0.80438 H
atom 6.74391 4.36450 1.63966 C
atom 5.40502 4.59681 1.65560 C
atom 4.74883 5.45544 1.71870 H
