lattice_vector 4.136356 0.0 0.0
lattice_vector 0.0 13.253558 0.0
lattice_vector -6.55088 0.0 6.130798
atom -3.11241 10.08382 4.21468 O
atom -2.99755 9.40880 3.01290 C
atom -3.67095 8.56918 2.89734 H
atom -2.02736 10.01745 2.28137 C
atom -1.08817 10.29765 1.11735 C
atom -1.57520 10.59147 0.17857 H
atom -0.35548 9.50945 0.90115 H
atom -0.52454 11.50716 1.97544 C
atom -0.68461 12.49775 1.53034 H
atom 0.53256 11.41447 2.25614 H
atom -1.52330 11.10232 3.04987 C
atom -2.20085 11.12373 4.22772 C
atom -2.20630 11.72208 5.12982 H
atom -3.11241 3.16974 4.21468 O
atom -2.99755 3.84475 3.01290 C
atom -3.67095 4.68438 2.89734 H
atom -2.02736 3.23611 2.28137 C
atom -1.08817 2.95590 1.11735 C
atom -1.57520 2.66209 0.17857 H
atom -0.35548 3.74411 0.90115 H
atom -0.52454 1.74640 1.97544 C
atom -0.68461 0.75581 1.53034 H
atom 0.53256 1.83909 2.25614 H
atom -1.52330 2.15124 3.04987 C
atom -2.20085 2.12982 4.22772 C
atom -2.20630 1.53148 5.12982 H
