lattice_vector 9.451731 0.0 0.0
lattice_vector 0.0 6.642973 0.0
lattice_vector 6.79568 0.0 4.223007
atom 7.49510 5.70190 4.42974 O
atom 8.86076 5.48420 4.40311 C
atom 9.44637 6.20348 4.96123 H
atom 9.09419 4.37766 3.64950 C
atom 9.86932 3.27383 2.94505 C
atom 10.41218 2.58418 3.60423 H
atom 10.54841 3.60701 2.14963 H
atom 8.46770 2.73355 2.43471 C
atom 8.20370 1.73181 2.79778 H
atom 8.33807 2.75806 1.34501 H
atom 7.83786 3.89266 3.19338 C
atom 6.87480 4.71755 3.68219 C
atom 5.79595 4.79343 3.63605 H
atom 4.09726 0.94108 2.31823 O
atom 5.46292 1.15877 2.29161 C
atom 6.04853 0.43949 2.84973 H
atom 5.69635 2.26531 1.53800 C
atom 6.47148 3.36914 0.83355 C
atom 7.01434 4.05879 1.49273 H
atom 7.15057 3.03596 0.03812 H
atom 5.06986 3.90943 0.32321 C
atom 4.80586 4.91117 0.68628 H
atom 4.94023 3.88491 -0.76649 H
atom 4.44002 2.75031 1.08188 C
atom 3.47696 1.92543 1.57069 C
atom 2.39811 1.84955 1.52454 H
