lattice_vector 6.86923698 0.04167129 0.48176872
lattice_vector -0.22607941 11.21117042 1.57273089
lattice_vector 9.78514197 -0.43708008 8.00456968
atom 9.41078 5.58739 7.06360 C
atom 8.63266 6.33173 7.52566 N
atom 10.38265 4.70557 6.56779 C
atom 10.01479 3.51117 5.34766 S
atom 11.64528 2.96948 5.34773 C
atom 12.44035 3.67074 6.24490 C
atom 11.71585 4.66720 6.94575 C
atom 13.76675 3.49990 6.46261 O
atom 11.94933 2.18370 4.66439 H
atom 12.16220 5.32758 7.68496 H
atom 14.04792 2.60692 6.12098 H
atom 13.21498 11.24432 7.69778 C
atom 13.98170 12.06692 7.36989 N
atom 12.26661 10.27668 8.06468 C
atom 12.76573 8.74644 8.74245 S
atom 11.13730 8.22204 8.84311 C
atom 10.24045 9.16690 8.36325 C
atom 10.88548 10.35816 7.93546 C
atom 8.89672 9.01899 8.28556 O
atom 10.91747 7.25331 9.27828 H
atom 10.35528 11.22360 7.54106 H
atom 8.68758 8.05452 8.16714 H
atom 7.01666 5.22706 2.99698 C
atom 7.79474 4.48227 2.53591 N
atom 6.04512 6.10935 3.49179 C
atom 6.41345 7.30450 4.71118 S
atom 4.78285 7.84633 4.71131 C
atom 3.98765 7.14483 3.81448 C
atom 4.71171 6.14787 3.11403 C
atom 2.66118 7.31578 3.59677 O
atom 4.47883 8.63272 5.39384 H
atom 4.26468 5.48681 2.37593 H
atom 2.38016 8.20870 3.93768 H
atom 3.21391 -0.42834 2.36091 C
atom 2.44724 -1.25152 2.68831 N
atom 4.16219 0.53985 1.99471 C
atom 3.66319 2.06981 1.31531 S
atom 5.29152 2.59454 1.21558 C
atom 6.18823 1.64934 1.69494 C
atom 5.54326 0.45813 2.12343 C
atom 7.53221 1.79717 1.77206 O
atom 5.51089 3.56361 0.78052 H
atom 6.07387 -0.40679 2.51695 H
atom 7.74118 2.76145 1.89228 H
