lattice_vector 3.029421 0.0 0.0
lattice_vector 0.0 11.813571 0.0
lattice_vector 1.275277 0.0 5.42669
atom 3.28414 6.26093 1.29600 O
atom 2.54378 5.38000 0.52857 C
atom 2.30054 5.73616 -0.46430 H
atom 2.31981 4.26372 1.27058 C
atom 1.80841 2.87827 1.63736 C
atom 2.22373 2.05084 1.04769 H
atom 0.71649 2.77151 1.67179 H
atom 2.49681 3.09251 3.05055 C
atom 3.30722 2.38736 3.27640 H
atom 1.80100 3.11202 3.89926 H
atom 2.93806 4.45521 2.53657 C
atom 3.52115 5.68274 2.52972 C
atom 4.09737 6.29188 3.21435 H
atom 1.02056 12.16771 4.13069 O
atom 1.76092 11.28679 4.89812 C
atom 2.00416 11.64295 5.89099 H
atom 1.98489 10.17051 4.15611 C
atom 2.49629 8.78505 3.78933 C
atom 2.08097 7.95763 4.37900 H
atom 3.58820 8.67829 3.75490 H
atom 1.80789 8.99930 2.37614 C
atom 0.99748 8.29415 2.15029 H
atom 2.50370 9.01881 1.52743 H
atom 1.36663 10.36200 2.89012 C
atom 0.78355 11.58952 2.89697 C
atom 0.20732 12.19867 2.21234 H
