lattice_vector 15.693729 0.0 0.0
lattice_vector 0.0 3.889223 0.0
lattice_vector -2.158721 0.0 4.425895
atom 11.12034 2.74843 0.21877 O
atom 9.94355 2.05506 0.00076 C
atom 9.46692 2.25679 -0.94999 H
atom 9.70574 1.27971 1.09123 C
atom 9.00316 0.28495 2.00357 C
atom 8.93625 -0.74124 1.61979 H
atom 8.01191 0.59113 2.36208 H
atom 10.18371 0.52841 3.03504 C
atom 10.79576 -0.35774 3.24752 H
atom 9.87296 0.97763 3.98713 H
atom 10.76459 1.49684 2.01498 C
atom 11.61738 2.39829 1.46090 C
atom 12.54379 2.88697 1.73435 H
atom 2.41467 2.74843 4.20713 O
atom 3.59145 2.05506 4.42514 C
atom 4.06809 2.25679 5.37588 H
atom 3.82927 1.27971 3.33467 C
atom 4.53185 0.28495 2.42232 C
atom 4.59876 -0.74124 2.80610 H
atom 5.52310 0.59113 2.06382 H
atom 3.35130 0.52841 1.39085 C
atom 2.73925 -0.35774 1.17838 H
atom 3.66204 0.97763 0.43876 H
atom 2.77042 1.49684 2.41092 C
atom 1.91763 2.39829 2.96500 C
atom 0.99122 2.88697 2.69155 H
