lattice_vector 6.303894 0.0 0.0
lattice_vector 0.0 15.918608 0.0
lattice_vector 2.884207 0.0 3.294167
atom 7.16071 -0.11417 2.79050 O
atom 6.78236 1.07630 3.38443 C
atom 5.77618 1.08515 3.78358 H
atom 7.82814 1.93966 3.29619 C
atom 8.63197 3.22165 3.45713 C
atom 8.85642 3.51082 4.49194 H
atom 8.23669 4.09701 2.92576 H
atom 9.81398 2.47250 2.70979 C
atom 10.72034 2.33187 3.31289 H
atom 10.09796 2.91471 1.74613 H
atom 8.88795 1.26769 2.62771 C
atom 8.45763 0.01400 2.32780 C
atom 8.85629 -0.86723 1.84165 H
atom 5.71860 16.03278 1.14342 O
atom 5.34026 14.84231 1.73735 C
atom 4.33407 14.83346 2.13649 H
atom 6.38603 13.97894 1.64911 C
atom 7.18986 12.69696 1.81005 C
atom 7.41431 12.40778 2.84486 H
atom 6.79458 11.82159 1.27868 H
atom 8.37187 13.44611 1.06271 C
atom 9.27824 13.58674 1.66580 H
atom 8.65586 13.00390 0.09905 H
atom 7.44585 14.65092 0.98062 C
atom 7.01553 15.90461 0.68071 C
atom 7.41418 16.78584 0.19456 H
