lattice_vector 4.940353 0.0 0.0
lattice_vector 0.0 12.986287 0.0
lattice_vector 3.739615 0.0 3.067714
atom 4.95727 12.00624 1.87137 O
atom 3.77722 11.49167 1.36557 C
atom 3.08738 12.23152 0.98016 H
atom 3.81750 10.14001 1.50054 C
atom 3.36904 8.68821 1.41872 C
atom 3.23624 8.29209 0.40369 H
atom 2.48272 8.43323 2.01394 H
atom 4.75249 8.31249 2.09829 C
atom 5.41604 7.69808 1.47604 H
atom 4.66334 7.84343 3.08666 H
atom 5.05803 9.80325 2.10824 C
atom 5.73823 10.95941 2.32613 C
atom 6.69222 11.25241 2.74549 H
atom 4.95727 0.98005 1.87137 O
atom 3.77722 1.49461 1.36557 C
atom 3.08738 0.75477 0.98016 H
atom 3.81750 2.84628 1.50054 C
atom 3.36904 4.29808 1.41872 C
atom 3.23624 4.69420 0.40369 H
atom 2.48272 4.55305 2.01394 H
atom 4.75249 4.67380 2.09829 C
atom 5.41604 5.28821 1.47604 H
atom 4.66334 5.14286 3.08666 H
atom 5.05803 3.18303 2.10824 C
atom 5.73823 2.02687 2.32613 C
atom 6.69222 1.73387 2.74549 H
