title geometry
lattice_vector 4.940353 0.000000 0.000000
lattice_vector 0.000000 12.986287 0.000000
lattice_vector 3.739615 0.000000 3.067714
137.515126 -42.826306 -136.987608 4.500473 10.219052 1.813375 /home/trose/genarris_mpi4py/merged_4_17_2019/tests/full_diverse_workflow/harris_single_molecule_prep_aims_dir/geometry
-148.377318 -90.979287 18.813510 4.500473 2.767232 1.813375 /home/trose/genarris_mpi4py/merged_4_17_2019/tests/full_diverse_workflow/harris_single_molecule_prep_aims_dir/geometry
