lattice_vector 9.65162 0.0 0.0
lattice_vector 0.0 5.082835 0.0
lattice_vector 6.350359 0.0 4.015171
atom 16.25984 4.09569 3.44623 O
atom 15.60196 4.31782 2.25001 C
atom 16.24180 4.60977 1.42710 H
atom 14.27657 4.09669 2.45323 C
atom 12.78962 3.98700 2.14915 C
atom 12.51213 3.20866 1.42665 H
atom 12.29558 4.92437 1.86258 H
atom 12.59690 3.57576 3.66923 C
atom 12.20629 2.56145 3.82289 H
atom 11.99395 4.27789 4.25941 H
atom 14.10413 3.72669 3.81521 C
atom 15.32944 3.73289 4.40294 C
atom 15.74025 3.53404 5.38453 H
atom -0.25786 1.55428 0.56894 O
atom 0.40002 1.77640 1.76516 C
atom -0.23982 2.06835 2.58807 H
atom 1.72541 1.55527 1.56194 C
atom 3.21236 1.44559 1.86602 C
atom 3.48985 0.66724 2.58852 H
atom 3.70640 2.38295 2.15260 H
atom 3.40508 1.03434 0.34594 C
atom 3.79569 0.02004 0.19229 H
atom 4.00803 1.73647 -0.24423 H
atom 1.89785 1.18527 0.19996 C
atom 0.67254 1.19148 -0.38777 C
atom 0.26173 0.99263 -1.36936 H
