title geometry
lattice_vector 9.651620 0.000000 0.000000
lattice_vector 0.000000 5.082835 0.000000
lattice_vector 6.350359 0.000000 4.015171
-18.500873 -28.192026 -45.155470 14.441818 3.934993 3.172336 /home/trose/genarris_mpi4py/merged_4_17_2019/tests/full_diverse_workflow/harris_single_molecule_prep_aims_dir/geometry
-161.499278 -151.808307 134.844415 1.560162 1.393575 0.842826 /home/trose/genarris_mpi4py/merged_4_17_2019/tests/full_diverse_workflow/harris_single_molecule_prep_aims_dir/geometry
