lattice_vector 6.34084 0.0 0.0
lattice_vector 0.0 12.143347 0.0
lattice_vector -2.023897 0.0 2.972634
atom 2.40434 5.06847 1.80116 O
atom 1.68584 4.00951 1.27631 C
atom 0.78943 4.29089 0.73865 H
atom 2.33719 2.86088 1.59758 C
atom 2.63893 1.37162 1.67883 C
atom 2.84790 0.87975 0.72007 H
atom 1.90417 0.77003 2.22935 H
atom 3.92912 1.76622 2.51345 C
atom 4.88150 1.49985 2.03698 H
atom 3.93646 1.39424 3.54612 H
atom 3.49427 3.21471 2.34432 C
atom 3.51488 4.56889 2.45664 C
atom 4.15207 5.31856 2.90808 H
atom 2.40434 7.07488 1.80116 O
atom 1.68584 8.13384 1.27631 C
atom 0.78943 7.85246 0.73865 H
atom 2.33719 9.28247 1.59758 C
atom 2.63893 10.77173 1.67883 C
atom 2.84790 11.26360 0.72007 H
atom 1.90417 11.37332 2.22935 H
atom 3.92912 10.37713 2.51345 C
atom 4.88150 10.64350 2.03698 H
atom 3.93646 10.74911 3.54612 H
atom 3.49427 8.92864 2.34432 C
atom 3.51488 7.57445 2.45664 C
atom 4.15207 6.82478 2.90808 H
