lattice_vector 2.975321 0.0 0.0
lattice_vector 5.453206463634065e-16 8.905762 0.0
lattice_vector 5.453206463634065e-16 5.453206463634065e-16 8.905762
atom 1.97615 5.44180 0.98892 C
atom 1.97615 5.80388 -0.36205 C
atom 1.97615 4.81493 -1.35100 C
atom 1.97615 3.46396 -0.98892 C
atom 1.97615 3.10188 0.36205 C
atom 1.97615 4.09083 1.35100 C
atom 1.97615 6.21354 1.76066 H
atom 1.97615 6.85814 -0.64438 H
atom 1.97615 5.09726 -2.40526 H
atom 1.97615 2.69222 -1.76066 H
atom 1.97615 2.04762 0.64438 H
atom 1.97615 3.80851 2.40526 H
atom 1.97615 -0.98892 5.44180 C
atom 1.97615 0.36205 5.80388 C
atom 1.97615 1.35100 4.81493 C
atom 1.97615 0.98892 3.46396 C
atom 1.97615 -0.36205 3.10188 C
atom 1.97615 -1.35100 4.09083 C
atom 1.97615 -1.76066 6.21354 H
atom 1.97615 0.64438 6.85814 H
atom 1.97615 2.40526 5.09726 H
atom 1.97615 1.76066 2.69222 H
atom 1.97615 -0.64438 2.04762 H
atom 1.97615 -2.40526 3.80851 H
