title geometry
lattice_vector 3.597218 0.000000 0.000000
lattice_vector 0.000000 13.379556 0.000000
lattice_vector -0.589514 0.000000 4.146704
-2.676923 -11.343091 -9.021613 3.083156 10.897213 2.804501 /home/trose/genarris_mpi4py/merged_4_17_2019/tests/full_diverse_workflow/harris_single_molecule_prep_aims_dir/geometry
-132.149119 -40.541071 17.935454 3.083156 2.482339 2.804501 /home/trose/genarris_mpi4py/merged_4_17_2019/tests/full_diverse_workflow/harris_single_molecule_prep_aims_dir/geometry
