lattice_vector 20.320536 0.0 0.0
lattice_vector 0.0 5.159912 0.0
lattice_vector -3.265038 0.0 2.718234
atom 5.16875 -0.55284 0.44692 O
atom 5.71229 0.15051 -0.61278 C
atom 5.59384 -0.32151 -1.57972 H
atom 6.26740 1.28872 -0.11967 C
atom 7.00200 2.62123 -0.10186 C
atom 6.50547 3.44072 -0.63733 H
atom 8.05402 2.58497 -0.41302 H
atom 6.77667 2.62649 1.46852 C
atom 6.15228 3.45008 1.83845 H
atom 7.69908 2.59040 2.06240 H
atom 6.06411 1.29407 1.28755 C
atom 5.39083 0.15894 1.61165 C
atom 5.00286 -0.30522 2.50934 H
atom 11.88675 -0.55284 2.27131 O
atom 11.34321 0.15051 3.33102 C
atom 11.46166 -0.32151 4.29795 H
atom 10.78810 1.28872 2.83791 C
atom 10.05349 2.62123 2.82009 C
atom 10.55002 3.44072 3.35556 H
atom 9.00148 2.58497 3.13125 H
atom 10.27883 2.62649 1.24971 C
atom 10.90322 3.45008 0.87978 H
atom 9.35642 2.59040 0.65583 H
atom 10.99139 1.29407 1.43069 C
atom 11.66466 0.15894 1.10658 C
atom 12.05264 -0.30522 0.20889 H
