lattice_vector 2 0 0 
lattice_vector 0 2 0
lattice_vector 0 0 2
atom 0 0 0 N
atom 0.5 0 0 N
atom -0.25 0.25 0 N
atom 0.25 0.25 0 N
