lattice_vector 18.278582 0.0 0.0
lattice_vector 0.0 2.791688 0.0
lattice_vector 5.12936 0.0 4.150951
atom 3.32481 0.15319 -0.97509 O
atom 4.66590 0.11442 -0.63880 C
atom 5.29202 -0.43433 -1.33065 H
atom 4.82805 0.80816 0.51847 C
atom 5.52716 1.42720 1.71995 C
atom 6.25983 2.21072 1.48726 H
atom 5.98451 0.71520 2.41906 H
atom 4.10226 1.96620 2.16270 C
atom 4.01425 3.06011 2.18742 H
atom 3.73722 1.56245 3.11589 H
atom 3.55120 1.29243 0.91442 C
atom 2.64753 0.87996 -0.01299 C
atom 1.58208 0.97358 -0.17995 H
atom 20.08313 1.54904 5.12605 O
atom 18.74204 1.51026 4.78975 C
atom 18.11593 0.96151 5.48160 H
atom 18.57990 2.20400 3.63248 C
atom 17.88078 2.82305 2.43100 C
atom 17.14811 3.60656 2.66369 H
atom 17.42344 2.11105 1.73189 H
atom 19.30568 3.36204 1.98825 C
atom 19.39370 4.45595 1.96353 H
atom 19.67073 2.95830 1.03506 H
atom 19.85674 2.68828 3.23653 C
atom 20.76041 2.27580 4.16394 C
atom 21.82586 2.36942 4.33090 H
