lattice_vector 11.760509 0.0 0.0
lattice_vector 0.0 5.729689 0.0
lattice_vector 3.998785 0.0 4.447495
atom 9.36417 4.22080 0.03942 O
atom 10.00643 4.02009 1.24786 C
atom 10.67299 4.81914 1.54622 H
atom 9.60135 2.82143 1.74381 C
atom 9.49487 1.63779 2.69416 C
atom 9.06924 1.86191 3.68079 H
atom 10.41702 1.05876 2.83282 H
atom 8.46894 1.00983 1.65973 C
atom 7.45278 0.86991 2.05067 H
atom 8.80133 0.07010 1.20009 H
atom 8.68077 2.25939 0.81738 C
atom 8.55119 3.13173 -0.21659 C
atom 7.99750 3.18577 -1.14520 H
atom 6.39513 7.08565 4.40807 O
atom 5.75286 6.88494 3.19963 C
atom 5.08630 7.68398 2.90127 H
atom 6.15794 5.68628 2.70369 C
atom 6.26443 4.50263 1.75334 C
atom 6.69005 4.72676 0.76670 H
atom 5.34227 3.92361 1.61467 H
atom 7.29035 3.87467 2.78777 C
atom 8.30652 3.73476 2.39683 H
atom 6.95796 2.93495 3.24741 H
atom 7.07852 5.12423 3.63012 C
atom 7.20810 5.99658 4.66408 C
atom 7.76180 6.05062 5.59269 H
