lattice_vector 6.488405 0.0 0.0
lattice_vector 0.0 14.31782 0.0
lattice_vector 0.703726 0.0 2.680713
atom 8.59900 3.38765 1.29680 O
atom 7.98849 2.21996 0.87621 C
atom 8.64285 1.52235 0.36931 H
atom 6.67885 2.27926 1.23422 C
atom 5.22559 1.85520 1.38825 C
atom 5.05651 0.96964 2.01437 H
atom 4.66674 1.73465 0.45122 H
atom 4.98950 3.23993 2.12559 C
atom 4.68223 3.15260 3.17581 H
atom 4.29655 3.91864 1.61177 H
atom 6.46769 3.51968 1.89634 C
atom 7.65477 4.18072 1.92290 C
atom 8.02885 5.12638 2.29386 H
atom 8.59900 10.93017 1.29680 O
atom 7.98849 12.09786 0.87621 C
atom 8.64285 12.79547 0.36931 H
atom 6.67885 12.03856 1.23422 C
atom 5.22559 12.46262 1.38825 C
atom 5.05651 13.34818 2.01437 H
atom 4.66674 12.58317 0.45122 H
atom 4.98950 11.07789 2.12559 C
atom 4.68223 11.16522 3.17581 H
atom 4.29655 10.39918 1.61177 H
atom 6.46769 10.79814 1.89634 C
atom 7.65477 10.13710 1.92290 C
atom 8.02885 9.19144 2.29386 H
