lattice_vector 4.682742 0.0 0.0
lattice_vector 0.0 13.624465 0.0
lattice_vector -4.703322 0.0 4.989496
atom -2.00856 5.34786 3.01449 O
atom -1.49325 4.56926 4.03496 C
atom -1.19838 5.11788 4.92032 H
atom -1.50268 3.27509 3.62040 C
atom -1.29775 1.76773 3.65804 C
atom -1.89497 1.22907 4.40504 H
atom -0.25477 1.43450 3.73558 H
atom -1.89444 1.73653 2.18838 C
atom -2.83416 1.17813 2.08779 H
atom -1.19411 1.38787 1.41843 H
atom -2.03882 3.24705 2.30382 C
atom -2.34082 4.52499 1.95381 C
atom -2.75677 5.03579 1.09480 H
atom -2.00856 8.27661 3.01449 O
atom -1.49325 9.05520 4.03496 C
atom -1.19838 8.50659 4.92032 H
atom -1.50268 10.34938 3.62040 C
atom -1.29775 11.85673 3.65804 C
atom -1.89497 12.39539 4.40504 H
atom -0.25477 12.18996 3.73558 H
atom -1.89444 11.88794 2.18838 C
atom -2.83416 12.44633 2.08779 H
atom -1.19411 12.23660 1.41843 H
atom -2.03882 10.37742 2.30382 C
atom -2.34082 9.09947 1.95381 C
atom -2.75677 8.58868 1.09480 H
