lattice_vector 14.162764 0.0 0.0
lattice_vector 0.0 3.116553 0.0
lattice_vector 0.766375 0.0 4.721377
atom 13.37059 3.58067 3.84570 O
atom 12.53195 3.53545 2.74672 C
atom 12.91186 4.03472 1.86456 H
atom 11.41577 2.84508 3.09937 C
atom 10.04594 2.19467 2.97250 C
atom 9.98316 1.36256 2.25942 H
atom 9.21188 2.88278 2.78352 H
atom 10.20985 1.75459 4.48787 C
atom 10.23926 0.66909 4.64852 H
atom 9.47168 2.19151 5.17274 H
atom 11.56339 2.44944 4.45706 C
atom 12.76539 2.91002 4.89284 C
atom 13.34058 2.88434 5.80953 H
atom 1.55855 3.58067 0.87568 O
atom 2.39719 3.53545 1.97466 C
atom 2.01728 4.03472 2.85681 H
atom 3.51337 2.84508 1.62201 C
atom 4.88319 2.19467 1.74888 C
atom 4.94598 1.36256 2.46196 H
atom 5.71726 2.88278 1.93785 H
atom 4.71929 1.75459 0.23350 C
atom 4.68987 0.66909 0.07286 H
atom 5.45746 2.19151 -0.45137 H
atom 3.36575 2.44944 0.26432 C
atom 2.16375 2.91002 -0.17147 C
atom 1.58856 2.88434 -1.08815 H
