lattice_vector 9.044133 0.0 0.0
lattice_vector 0.0 3.839197 0.0
lattice_vector -8.421964 0.0 6.086848
atom -2.98963 4.38838 4.40453 O
atom -2.12231 3.55975 3.71587 C
atom -2.51139 3.16815 2.78471 H
atom -0.97273 3.46609 4.43456 C
atom 0.43778 3.03818 4.81257 C
atom 1.23132 3.37767 4.13443 H
atom 0.57160 1.96500 5.00030 H
atom 0.26307 3.92130 6.11888 C
atom 0.95719 4.76831 6.19485 H
atom 0.29341 3.35639 7.05951 H
atom -1.12885 4.25878 5.60456 C
atom -2.36913 4.81286 5.56528 C
atom -2.96433 5.47186 6.18437 H
atom 1.22135 -0.54919 1.36110 O
atom 2.08867 0.27944 0.67245 C
atom 1.69959 0.67105 -0.25871 H
atom 3.23825 0.37311 1.39114 C
atom 4.64876 0.80102 1.76914 C
atom 5.44230 0.46153 1.09101 H
atom 4.78258 1.87420 1.95688 H
atom 4.47405 -0.08211 3.07546 C
atom 5.16818 -0.92911 3.15142 H
atom 4.50439 0.48280 4.01609 H
atom 3.08213 -0.41958 2.56114 C
atom 1.84185 -0.97366 2.52186 C
atom 1.24665 -1.63266 3.14095 H
