lattice_vector 3.878838 0.0 0.0
lattice_vector 0.0 7.015143 0.0
lattice_vector 3.037163 0.0 8.422582
atom 1.73726 2.87408 1.96574 O
atom 1.34767 1.98682 0.97877 C
atom 1.48872 2.34298 -0.03367 H
atom 0.87600 0.86587 1.58527 C
atom 0.28108 -0.52648 1.73678 C
atom 0.89639 -1.34732 1.34632 H
atom -0.74330 -0.64604 1.36100 H
atom 0.38916 -0.30832 3.30446 C
atom 1.06484 -1.00464 3.81786 H
atom -0.57349 -0.29935 3.83177 H
atom 0.97427 1.06090 2.99024 C
atom 1.50310 2.29513 3.19965 C
atom 1.77459 2.90896 4.04896 H
atom 3.25584 4.14107 6.17703 O
atom 2.86625 5.02832 5.19006 C
atom 3.00730 4.67216 4.17762 H
atom 2.39458 6.14927 5.79656 C
atom 1.79966 7.54163 5.94807 C
atom 2.41497 8.36246 5.55761 H
atom 0.77528 7.66118 5.57229 H
atom 1.90774 7.32346 7.51575 C
atom 2.58342 8.01979 8.02916 H
atom 0.94509 7.31449 8.04306 H
atom 2.49285 5.95425 7.20153 C
atom 3.02168 4.72001 7.41094 C
atom 3.29317 4.10618 8.26025 H
