lattice_vector 5.934585 0.0 0.0
lattice_vector 0.0 4.631806 0.0
lattice_vector 14.606125 0.0 10.175961
atom 6.47199 4.79568 3.00572 O
atom 6.21969 3.67164 2.24024 C
atom 7.07899 3.28035 1.71081 H
atom 4.90374 3.35995 2.37432 C
atom 3.59177 2.61360 2.18139 C
atom 3.57562 1.58291 2.55852 H
atom 3.19033 2.62006 1.15978 H
atom 2.93969 3.68314 3.15493 C
atom 2.54573 3.26876 4.09199 H
atom 2.16423 4.30798 2.69333 H
atom 4.31974 4.31767 3.24801 C
atom 5.29660 5.18553 3.62137 C
atom 5.38163 6.06272 4.24998 H
atom 13.77506 -0.16388 8.09370 O
atom 13.52275 0.96017 7.32822 C
atom 14.38206 1.35145 6.79879 H
atom 12.20681 1.27186 7.46229 C
atom 10.89483 2.01820 7.26937 C
atom 10.87868 3.04890 7.64650 H
atom 10.49340 2.01174 6.24777 H
atom 10.24275 0.94867 8.24291 C
atom 9.84879 1.36304 9.17997 H
atom 9.46729 0.32382 7.78131 H
atom 11.62280 0.31414 8.33599 C
atom 12.59966 -0.55373 8.70935 C
atom 12.68470 -1.43091 9.33796 H
