lattice_vector 6.721472 0.0 0.0
lattice_vector 0.0 8.189933 0.0
lattice_vector 1.35523 0.0 4.399057
atom 10.07005 0.90503 4.08287 O
atom 9.46443 0.39618 2.94823 C
atom 10.14203 -0.05741 2.23625 H
atom 8.12772 0.61861 3.05101 C
atom 6.65233 0.61577 2.67850 C
atom 6.18737 -0.37550 2.60100 H
atom 6.38932 1.19779 1.78578 H
atom 6.39199 1.36137 4.05443 C
atom 5.77524 0.80101 4.76901 H
atom 5.98145 2.37444 3.95439 H
atom 7.89431 1.28551 4.28486 C
atom 9.09553 1.45032 4.89866 C
atom 9.46320 1.88000 5.82171 H
atom -1.99335 4.99999 0.31619 O
atom -1.38773 4.49115 1.45083 C
atom -2.06533 4.03756 2.16281 H
atom -0.05102 4.71357 1.34805 C
atom 1.42437 4.71074 1.72056 C
atom 1.88933 3.71946 1.79806 H
atom 1.68738 5.29276 2.61327 H
atom 1.68472 5.45634 0.34462 C
atom 2.30146 4.89598 -0.36995 H
atom 2.09525 6.46940 0.44466 H
atom 0.18239 5.38048 0.11420 C
atom -1.01883 5.54529 -0.49961 C
atom -1.38650 5.97496 -1.42266 H
