lattice_vector 5.284081 0.0 0.0
lattice_vector 0.0 4.01644 0.0
lattice_vector 14.547199 0.0 9.142996
atom 8.18414 5.28869 2.58001 O
atom 7.20962 4.94769 1.65962 C
atom 7.18224 5.57102 0.77503 H
atom 6.52946 3.87672 2.14671 C
atom 5.50362 2.75500 2.21690 C
atom 5.60354 1.97583 1.45025 H
atom 4.45466 3.07587 2.25685 H
atom 6.13509 2.38191 3.62365 C
atom 6.59690 1.38706 3.66856 H
atom 5.45057 2.49055 4.47480 H
atom 7.09643 3.54149 3.40679 C
atom 8.10593 4.41779 3.65144 C
atom 8.82974 4.59617 4.43636 H
atom 11.64713 5.28869 6.56298 O
atom 12.62166 4.94769 7.48337 C
atom 12.64904 5.57102 8.36796 H
atom 13.30182 3.87672 6.99629 C
atom 14.32766 2.75500 6.92610 C
atom 14.22774 1.97583 7.69275 H
atom 15.37662 3.07587 6.88614 H
atom 13.69619 2.38191 5.51935 C
atom 13.23438 1.38706 5.47443 H
atom 14.38071 2.49055 4.66819 H
atom 12.73485 3.54149 5.73621 C
atom 11.72535 4.41779 5.49155 C
atom 11.00154 4.59617 4.70663 H
