lattice_vector 9.326699 0.0 0.0
lattice_vector 0.0 3.656443 0.0
lattice_vector -9.281114 0.0 8.468418
atom -0.17507 2.82344 -1.00649 O
atom 0.99739 2.46726 -0.36494 C
atom 1.88410 2.97277 -0.72547 H
atom 0.69261 1.54057 0.58122 C
atom 0.89456 0.54213 1.71164 C
atom 1.25103 0.96759 2.65861 H
atom 1.51092 -0.33211 1.46536 H
atom -0.67001 0.28673 1.65008 C
atom -1.21496 0.56277 2.56213 H
atom -0.95525 -0.73428 1.36548 H
atom -0.70982 1.31283 0.52697 C
atom -1.21951 2.10735 -0.45069 C
atom -2.19112 2.31105 -0.88231 H
atom -4.81563 0.83300 3.22772 O
atom -3.64317 1.18919 3.86927 C
atom -2.75645 0.68367 3.50874 H
atom -3.94794 2.11587 4.81542 C
atom -3.74600 3.11431 5.94585 C
atom -3.38952 2.68886 6.89282 H
atom -3.12964 3.98855 5.69957 H
atom -5.31056 3.36971 5.88429 C
atom -5.85552 3.09367 6.79634 H
atom -5.59581 4.39073 5.59969 H
atom -5.35038 2.34362 4.76118 C
atom -5.86006 1.54910 3.78352 C
atom -6.83168 1.34539 3.35190 H
