title geometry
lattice_vector 9.326699 0.000000 0.000000
lattice_vector 0.000000 3.656443 0.000000
lattice_vector -9.281114 0.000000 8.468418
39.877320 -95.150356 74.382046 -0.028656 1.595799 0.363735 /home/trose/genarris_mpi4py/merged_4_17_2019/tests/full_diverse_workflow/harris_single_molecule_prep_aims_dir/geometry
-2.121870 -62.237780 154.767887 -4.669212 2.060640 4.597943 /home/trose/genarris_mpi4py/merged_4_17_2019/tests/full_diverse_workflow/harris_single_molecule_prep_aims_dir/geometry
