lattice_vector 15.359307 0.0 0.0
lattice_vector 0.0 5.115076 0.0
lattice_vector 3.266012 0.0 2.890089
atom 14.05844 6.91511 1.34206 O
atom 13.22008 6.09127 0.61299 C
atom 12.92636 6.48218 -0.35278 H
atom 12.99047 4.97119 1.34754 C
atom 12.43376 3.60577 1.72336 C
atom 12.76197 2.77189 1.08953 H
atom 11.34291 3.55448 1.83412 H
atom 13.23081 3.75182 3.08728 C
atom 14.01675 3.00097 3.24067 H
atom 12.59882 3.78753 3.98403 H
atom 13.70602 5.10151 2.56927 C
atom 14.35126 6.29730 2.54418 C
atom 15.00589 6.86014 3.19724 H
atom 4.56688 4.35758 1.54803 O
atom 5.40524 3.53373 2.27710 C
atom 5.69896 3.92464 3.24287 H
atom 5.63485 2.41366 1.54255 C
atom 6.19156 1.04824 1.16673 C
atom 5.86335 0.21435 1.80056 H
atom 7.28241 0.99694 1.05597 H
atom 5.39451 1.19428 -0.19719 C
atom 4.60857 0.44343 -0.35058 H
atom 6.02650 1.22999 -1.09394 H
atom 4.91930 2.54398 0.32082 C
atom 4.27406 3.73976 0.34591 C
atom 3.61943 4.30260 -0.30716 H
