title geometry
lattice_vector 15.359307 0.000000 0.000000
lattice_vector 0.000000 5.115076 0.000000
lattice_vector 3.266012 0.000000 2.890089
0.000000 0.000000 0.000000 13.433794 5.265162 1.883839 /home/trose/genarris_mpi4py/merged_4_17_2019/tests/full_diverse_workflow/harris_single_molecule_prep_aims_dir/geometry
72.262828 -179.700466 71.863987 5.191527 2.707624 1.006242 /home/trose/genarris_mpi4py/merged_4_17_2019/tests/full_diverse_workflow/harris_single_molecule_prep_aims_dir/geometry
