lattice_vector 8.258033 0.0 0.0
lattice_vector 0.0 7.262564 0.0
lattice_vector -7.541032 0.0 4.491804
atom 6.17090 5.22481 0.06751 O
atom 5.31608 4.15895 -0.14773 C
atom 4.47388 4.37513 -0.79254 H
atom 5.79591 3.09091 0.54213 C
atom 5.88420 1.67353 1.08871 C
atom 6.03193 0.88677 0.33770 H
atom 5.06634 1.37274 1.75618 H
atom 7.20824 2.13445 1.83125 C
atom 8.11861 1.61196 1.50996 H
atom 7.15230 2.10192 2.92699 H
atom 6.98335 3.50368 1.20638 C
atom 7.19314 4.81147 0.90220 C
atom 7.92471 5.57391 1.13741 H
atom 2.40038 2.03775 2.31341 O
atom 1.54556 3.10362 2.09817 C
atom 0.70337 2.88744 1.45337 H
atom 2.02539 4.17165 2.78803 C
atom 2.11368 5.58904 3.33462 C
atom 2.26141 6.37579 2.58360 H
atom 1.29583 5.88982 4.00208 H
atom 3.43772 5.12811 4.07715 C
atom 4.34809 5.65061 3.75587 H
atom 3.38179 5.16065 5.17289 H
atom 3.21283 3.75888 3.45228 C
atom 3.42263 2.45109 3.14810 C
atom 4.15419 1.68866 3.38331 H
