lattice_vector 3.300699 0.0 0.0
lattice_vector 0.0 15.815674 0.0
lattice_vector 6.528229 0.0 4.214225
atom 2.02529 5.58967 -0.01886 O
atom 1.21476 4.74471 -0.75521 C
atom 0.93449 5.12034 -1.73099 H
atom 0.98793 3.62924 -0.01283 C
atom 0.44517 2.25937 0.36714 C
atom 0.79907 1.42390 -0.25059 H
atom -0.64676 2.19200 0.45666 H
atom 1.21220 2.43294 1.74497 C
atom 2.00652 1.69636 1.92247 H
atom 0.56179 2.46843 2.62846 H
atom 1.67660 3.78425 1.22140 C
atom 2.30345 4.98976 1.19575 C
atom 2.93591 5.57001 1.85538 H
atom 2.02529 10.22600 -0.01886 O
atom 1.21476 11.07096 -0.75521 C
atom 0.93449 10.69534 -1.73099 H
atom 0.98793 12.18643 -0.01283 C
atom 0.44517 13.55631 0.36714 C
atom 0.79907 14.39177 -0.25059 H
atom -0.64676 13.62367 0.45666 H
atom 1.21220 13.38274 1.74497 C
atom 2.00652 14.11932 1.92247 H
atom 0.56179 13.34724 2.62846 H
atom 1.67660 12.03143 1.22140 C
atom 2.30345 10.82591 1.19575 C
atom 2.93591 10.24566 1.85538 H
