lattice_vector 3.373932 0.0 0.0
lattice_vector 0.0 15.891118 0.0
lattice_vector 5.850637 0.0 5.75489
atom 1.05759 6.75886 2.45339 O
atom 1.90940 6.48824 1.39779 C
atom 1.96114 7.26468 0.64529 H
atom 2.46776 5.26792 1.61201 C
atom 3.32837 4.03573 1.37415 C
atom 4.41213 4.20983 1.37614 H
atom 3.06961 3.44268 0.48747 H
atom 2.74765 3.47263 2.73891 C
atom 3.49677 3.32004 3.52666 H
atom 2.15170 2.55636 2.63820 H
atom 1.94837 4.76397 2.83590 C
atom 1.08840 5.69172 3.33248 C
atom 0.45263 5.80012 4.20188 H
atom 8.16698 14.70442 3.30150 O
atom 7.31516 14.43380 4.35710 C
atom 7.26343 15.21024 5.10960 H
atom 6.75681 13.21348 4.14288 C
atom 5.89619 11.98129 4.38074 C
atom 4.81245 12.15539 4.37875 H
atom 6.15496 11.38824 5.26742 H
atom 6.47692 11.41818 3.01598 C
atom 5.72780 11.26560 2.22823 H
atom 7.07287 10.50192 3.11669 H
atom 7.27620 12.70953 2.91899 C
atom 8.13616 13.63728 2.42241 C
atom 8.77194 13.74568 1.55301 H
