lattice_vector 5.265451 0.0 0.0
lattice_vector 0.0 13.343919 0.0
lattice_vector -1.296947 0.0 3.978993
atom 2.18707 1.66443 0.56353 O
atom 1.63288 2.66188 -0.21818 C
atom 0.91266 2.31836 -0.94966 H
atom 2.17283 3.84712 0.16977 C
atom 2.44251 5.34434 0.20346 C
atom 1.58837 5.97107 0.49070 H
atom 2.89597 5.76328 -0.70413 H
atom 3.46701 5.04620 1.37751 C
atom 3.20472 5.50279 2.34070 H
atom 4.51156 5.29080 1.14529 H
atom 3.08990 3.58000 1.22298 C
atom 3.08247 2.23957 1.44671 C
atom 3.57719 1.54273 2.11116 H
atom 2.18707 11.67949 0.56353 O
atom 1.63288 10.68204 -0.21818 C
atom 0.91266 11.02556 -0.94966 H
atom 2.17283 9.49680 0.16977 C
atom 2.44251 7.99958 0.20346 C
atom 1.58837 7.37285 0.49070 H
atom 2.89597 7.58064 -0.70413 H
atom 3.46701 8.29772 1.37751 C
atom 3.20472 7.84113 2.34070 H
atom 4.51156 8.05312 1.14529 H
atom 3.08990 9.76392 1.22298 C
atom 3.08247 11.10435 1.44671 C
atom 3.57719 11.80118 2.11116 H
