title geometry
lattice_vector 4.979200 0.000000 0.000000
lattice_vector 0.000000 4.642179 0.000000
lattice_vector 11.208111 0.000000 12.113111
-112.143756 -75.584151 159.092301 9.109998 0.849780 9.074904 /home/trose/genarris_mpi4py/merged_4_17_2019/tests/full_diverse_workflow/harris_single_molecule_prep_aims_dir/geometry
-67.856416 -104.416119 -20.907853 7.077315 0.849780 3.038198 /home/trose/genarris_mpi4py/merged_4_17_2019/tests/full_diverse_workflow/harris_single_molecule_prep_aims_dir/geometry
