lattice_vector 7.38405763 -0.03843232 0.00163839
lattice_vector 0.00349074 8.36347977 -0.00398826
lattice_vector 5.3564148 -0.0291228 8.79001761
atom 5.48877 6.96024 -0.13732 C
atom 5.50910 8.12890 -0.19512 N
atom 5.48915 5.56580 -0.02109 C
atom 6.03729 4.82897 1.46096 S
atom 5.81336 3.25497 0.80850 C
atom 5.31683 3.29579 -0.48910 C
atom 5.13324 4.61765 -0.96807 C
atom 5.03227 2.23429 -1.27667 O
atom 6.10030 2.39337 1.40595 H
atom 4.77000 4.84833 -1.96539 H
atom 5.22658 1.38299 -0.79555 H
atom 4.57063 2.78690 4.53400 C
atom 4.53896 3.95550 4.58560 N
atom 4.57637 1.39244 4.42231 C
atom 4.04669 0.65759 2.93061 S
atom 4.26542 -0.91576 3.58277 C
atom 4.74352 -0.87901 4.88656 C
atom 4.92094 0.44249 5.37118 C
atom 5.01600 -1.94298 5.67432 O
atom 3.98922 -1.77967 2.98330 H
atom 5.27065 0.67093 6.37379 H
atom 4.81876 -2.79215 5.19069 H
atom 7.25516 1.33567 8.92501 C
atom 7.23494 0.16700 8.98277 N
atom 7.25480 2.73011 8.80876 C
atom 6.70666 3.46695 7.32672 S
atom 6.93060 5.04095 7.97917 C
atom 7.42713 5.00012 9.27677 C
atom 7.61071 3.67826 9.75575 C
atom 7.71170 6.06161 10.06435 O
atom 6.64368 5.90254 7.38171 H
atom 7.97394 3.44758 10.75307 H
atom 7.51742 6.91292 9.58321 H
atom 8.17342 5.50904 4.25360 C
atom 8.20482 4.34043 4.20214 N
atom 8.16764 6.90350 4.36533 C
atom 8.69733 7.63834 5.85702 S
atom 8.47857 9.21169 5.20488 C
atom 8.00046 9.17495 3.90110 C
atom 7.82306 7.85346 3.41646 C
atom 7.72793 10.23893 3.11336 O
atom 8.75473 10.07560 5.80437 H
atom 7.47335 7.62502 2.41385 H
atom 7.92513 11.08809 3.59701 H
