lattice_vector 3.957992 0.0 0.0
lattice_vector 0.0 12.368109 0.0
lattice_vector -8.828027 0.0 6.35494
atom -0.53321 5.17861 1.73704 O
atom -1.37661 4.37588 0.99044 C
atom -1.46865 4.65810 -0.05056 H
atom -1.87527 3.41429 1.81113 C
atom -2.68094 2.20336 2.25841 C
atom -2.39803 1.25047 1.79279 H
atom -3.77147 2.31320 2.19884 H
atom -2.07053 2.43887 3.70369 C
atom -1.43776 1.62099 4.07202 H
atom -2.80930 2.68729 4.47657 H
atom -1.32700 3.62455 3.10606 C
atom -0.50986 4.70826 3.03734 C
atom 0.12466 5.26831 3.71228 H
atom -0.53321 7.18950 1.73704 O
atom -1.37661 7.99223 0.99044 C
atom -1.46865 7.71001 -0.05056 H
atom -1.87527 8.95382 1.81113 C
atom -2.68094 10.16475 2.25841 C
atom -2.39803 11.11764 1.79279 H
atom -3.77147 10.05490 2.19884 H
atom -2.07053 9.92924 3.70369 C
atom -1.43776 10.74712 4.07202 H
atom -2.80930 9.68082 4.47657 H
atom -1.32700 8.74356 3.10606 C
atom -0.50986 7.65985 3.03734 C
atom 0.12466 7.09980 3.71228 H
