title geometry
lattice_vector 3.957992 0.000000 0.000000
lattice_vector 0.000000 12.368109 0.000000
lattice_vector -8.828027 0.000000 6.354940
-45.020735 -11.396904 36.371637 -1.472069 3.721686 2.371054 /home/trose/genarris_mpi4py/merged_4_17_2019/tests/full_diverse_workflow/harris_single_molecule_prep_aims_dir/geometry
-144.605763 -37.814962 31.079939 -1.472069 8.646419 2.371054 /home/trose/genarris_mpi4py/merged_4_17_2019/tests/full_diverse_workflow/harris_single_molecule_prep_aims_dir/geometry
