lattice_vector 16.699215 0.0 0.0
lattice_vector 0.0 3.840559 0.0
lattice_vector -0.198515 0.0 4.365424
atom 13.14214 3.96703 1.08923 O
atom 11.97456 3.28326 1.37618 C
atom 11.15833 3.47028 0.69018 H
atom 12.19024 2.53432 2.48947 C
atom 11.90816 1.56778 3.63042 C
atom 11.69106 0.53448 3.33042 H
atom 11.14335 1.89338 4.34729 H
atom 13.40303 1.81913 4.09850 C
atom 14.04687 0.93048 4.07049 H
atom 13.49952 2.29230 5.08421 H
atom 13.53045 2.75851 2.90805 C
atom 14.09311 3.63763 2.03776 C
atom 15.05280 4.12095 1.90659 H
atom 3.35856 3.96703 3.27619 O
atom 4.52614 3.28326 2.98924 C
atom 5.34237 3.47028 3.67524 H
atom 4.31046 2.53432 1.87596 C
atom 4.59254 1.56778 0.73501 C
atom 4.80964 0.53448 1.03500 H
atom 5.35735 1.89338 0.01813 H
atom 3.09767 1.81913 0.26693 C
atom 2.45384 0.93048 0.29494 H
atom 3.00118 2.29230 -0.71879 H
atom 2.97025 2.75851 1.45738 C
atom 2.40759 3.63763 2.32767 C
atom 1.44790 4.12095 2.45883 H
