lattice_vector 3.818675 0.0 0.0
lattice_vector 0.0 10.640268 0.0
lattice_vector -3.661517 0.0 5.032742
atom -0.10202 5.64934 0.89421 O
atom -1.01858 4.87223 0.20927 C
atom -1.40156 5.31709 -0.70025 H
atom -1.18824 3.71556 0.90222 C
atom -1.72192 2.33571 1.25819 C
atom -1.46842 1.53518 0.55127 H
atom -2.79700 2.28616 1.47404 H
atom -0.79204 2.40184 2.54188 C
atom -0.00416 1.63824 2.57603 H
atom -1.33169 2.39324 3.49768 H
atom -0.35372 3.77429 2.05190 C
atom 0.30065 4.96509 2.02656 C
atom 1.02364 5.48700 2.64033 H
atom 0.25918 10.96947 4.13854 O
atom 1.17574 10.19236 4.82347 C
atom 1.55872 10.63722 5.73299 H
atom 1.34540 9.03570 4.13052 C
atom 1.87907 7.65584 3.77455 C
atom 1.62558 6.85532 4.48147 H
atom 2.95416 7.60630 3.55870 H
atom 0.94920 7.72197 2.49086 C
atom 0.16132 6.95837 2.45671 H
atom 1.48884 7.71338 1.53507 H
atom 0.51088 9.09442 2.98084 C
atom -0.14349 10.28523 3.00619 C
atom -0.86648 10.80713 2.39241 H
