title geometry
lattice_vector 3.818675 0.000000 0.000000
lattice_vector 0.000000 10.640268 0.000000
lattice_vector -3.661517 0.000000 5.032742
0.000000 0.000000 0.000000 -0.690399 3.976837 1.406662 /home/trose/genarris_mpi4py/merged_4_17_2019/tests/full_diverse_workflow/harris_single_molecule_prep_aims_dir/geometry
30.542020 -173.299253 29.572181 0.847559 9.296972 3.626071 /home/trose/genarris_mpi4py/merged_4_17_2019/tests/full_diverse_workflow/harris_single_molecule_prep_aims_dir/geometry
