lattice_vector 8.211518 0.0 0.0
lattice_vector 0.0 4.002246 0.0
lattice_vector -4.549815 0.0 6.482146
atom 5.00873 3.08546 -0.41279 O
atom 4.70538 4.25557 0.25948 C
atom 3.93305 4.85746 -0.20207 H
atom 5.49829 4.32368 1.36107 C
atom 6.10307 4.86768 2.64708 C
atom 5.41217 4.94758 3.49626 H
atom 6.64946 5.81459 2.54863 H
atom 7.02031 3.57333 2.66174 C
atom 6.85980 2.90843 3.52031 H
atom 8.09540 3.77435 2.56886 H
atom 6.31927 3.16290 1.37492 C
atom 6.00307 2.42061 0.28135 C
atom 6.31850 1.48435 -0.16106 H
atom 2.73382 0.91679 2.82828 O
atom 2.43048 -0.25332 3.50055 C
atom 1.65814 -0.85522 3.03901 H
atom 3.22338 -0.32144 4.60214 C
atom 3.82816 -0.86544 5.88816 C
atom 3.13726 -0.94533 6.73734 H
atom 4.37455 -1.81234 5.78970 H
atom 4.74541 0.42891 5.90281 C
atom 4.58489 1.09382 6.76138 H
atom 5.82049 0.22790 5.80993 H
atom 4.04436 0.83935 4.61599 C
atom 3.72816 1.58163 3.52242 C
atom 4.04359 2.51790 3.08001 H
