title geometry
lattice_vector 6.439896 0.000000 0.000000
lattice_vector 0.000000 12.570634 0.000000
lattice_vector -3.176471 0.000000 2.650946
0.000000 0.000000 0.000000 -0.941962 3.695373 1.183229 /home/trose/genarris_mpi4py/merged_4_17_2019/tests/full_diverse_workflow/harris_single_molecule_prep_aims_dir/geometry
-150.319532 -42.469879 30.034498 -0.941962 8.875258 1.183229 /home/trose/genarris_mpi4py/merged_4_17_2019/tests/full_diverse_workflow/harris_single_molecule_prep_aims_dir/geometry
