lattice_vector 5.905044 0.0 0.0
lattice_vector 0.0 8.978216 0.0
lattice_vector -2.293712 0.0 3.911067
atom -0.60081 8.58044 3.13669 O
atom -1.65142 8.08370 2.38663 C
atom -2.57835 8.63451 2.48255 H
atom -1.20411 6.99407 1.70880 C
atom -1.22546 5.78866 0.78032 C
atom -1.40687 6.01234 -0.27887 H
atom -1.88941 4.96936 1.08493 H
atom 0.30082 5.57847 1.15871 C
atom 0.99884 5.67872 0.31745 H
atom 0.51593 4.63900 1.68404 H
atom 0.16419 6.80663 2.04684 C
atom 0.51151 7.78751 2.92096 C
atom 1.39780 8.08976 3.46406 H
atom -1.74767 0.39778 5.09223 O
atom -2.79827 0.89451 4.34216 C
atom -3.72521 0.34371 4.43808 H
atom -2.35096 1.98415 3.66433 C
atom -2.37232 3.18955 2.73585 C
atom -2.55372 2.96587 1.67666 H
atom -3.03626 4.00885 3.04046 H
atom -0.84604 3.39975 3.11424 C
atom -0.14802 3.29950 2.27298 H
atom -0.63092 4.33922 3.63957 H
atom -0.98267 2.17158 4.00237 C
atom -0.63534 1.19070 4.87650 C
atom 0.25095 0.88846 5.41960 H
