lattice_vector 5.600707 0.0 0.0
lattice_vector 0.0 12.458231 0.0
lattice_vector -2.141009 0.0 2.973366
atom 0.14127 4.27998 1.25376 O
atom -0.68911 3.43056 0.54520 C
atom -0.97540 3.78874 -0.43539 H
atom -0.92261 2.33476 1.31431 C
atom -1.47962 0.98114 1.73022 C
atom -1.14427 0.12760 1.12703 H
atom -2.57127 0.93092 1.83338 H
atom -0.69455 1.17395 3.09528 C
atom 0.09163 0.43044 3.27998 H
atom -1.33424 1.23768 3.98498 H
atom -0.21778 2.50697 2.53708 C
atom 0.42513 3.70282 2.47804 C
atom 1.07298 4.28843 3.11770 H
atom 3.31843 10.50910 1.71960 O
atom 4.14881 9.65968 2.42817 C
atom 4.43509 10.01786 3.40875 H
atom 4.38231 8.56387 1.65906 C
atom 4.93932 7.21026 1.24314 C
atom 4.60396 6.35672 1.84634 H
atom 6.03097 7.16004 1.13998 H
atom 4.15424 7.40307 -0.12191 C
atom 3.36807 6.65956 -0.30661 H
atom 4.79394 7.46680 -1.01162 H
atom 3.67748 8.73609 0.43628 C
atom 3.03457 9.93194 0.49533 C
atom 2.38672 10.51755 -0.14433 H
