lattice_vector 6.705478 0.0 0.0
lattice_vector 0.0 10.69328 0.0
lattice_vector -3.685785 0.0 2.712307
atom 4.99945 2.63338 -0.95417 O
atom 5.30131 3.69935 -0.12610 C
atom 5.85071 4.50210 -0.60102 H
atom 4.80013 3.42694 1.10737 C
atom 4.46590 3.61360 2.58012 C
atom 3.78981 4.44767 2.80828 H
atom 5.32814 3.66510 3.25743 H
atom 3.76249 2.19323 2.51186 C
atom 2.68161 2.20822 2.70286 H
atom 4.22132 1.42530 3.14794 H
atom 4.16845 2.15461 1.04573 C
atom 4.30275 1.68816 -0.22362 C
atom 4.01454 0.80528 -0.77975 H
atom 4.99945 8.05990 -0.95417 O
atom 5.30131 6.99393 -0.12610 C
atom 5.85071 6.19118 -0.60102 H
atom 4.80013 7.26634 1.10737 C
atom 4.46590 7.07968 2.58012 C
atom 3.78981 6.24561 2.80828 H
atom 5.32814 7.02818 3.25743 H
atom 3.76249 8.50005 2.51186 C
atom 2.68161 8.48506 2.70286 H
atom 4.22132 9.26798 3.14794 H
atom 4.16845 8.53866 1.04573 C
atom 4.30275 9.00512 -0.22362 C
atom 4.01454 9.88800 -0.77975 H
