title geometry
lattice_vector 6.705478 0.000000 0.000000
lattice_vector 0.000000 10.693280 0.000000
lattice_vector -3.685785 0.000000 2.712307
84.064573 -69.200130 125.646777 4.547763 2.771258 0.829925 /home/trose/genarris_mpi4py/merged_4_17_2019/tests/full_diverse_workflow/harris_single_molecule_prep_aims_dir/geometry
-34.778127 -81.628016 98.243281 4.547763 7.922019 0.829925 /home/trose/genarris_mpi4py/merged_4_17_2019/tests/full_diverse_workflow/harris_single_molecule_prep_aims_dir/geometry
