lattice_vector 9.418573 0.0 0.0
lattice_vector 0.0 7.227808 0.0
lattice_vector -1.256997 0.0 2.872138
atom 2.63031 6.08821 2.95110 O
atom 2.54008 7.43421 2.64573 C
atom 3.48214 7.96726 2.65945 H
atom 1.23437 7.72229 2.40288 C
atom -0.00148 8.53982 2.05670 C
atom -0.02162 8.95751 1.04183 H
atom -0.25660 9.33515 2.76891 H
atom -0.83223 7.20018 2.23590 C
atom -1.33296 6.84695 1.32513 H
atom -1.56431 7.22265 3.05346 H
atom 0.49011 6.52131 2.56206 C
atom 1.36366 5.53572 2.89729 C
atom 1.31908 4.47758 3.12130 H
atom 5.53126 2.47430 -0.07896 O
atom 5.62150 3.82030 0.22641 C
atom 4.67944 4.35335 0.21269 H
atom 6.92721 4.10839 0.46926 C
atom 8.16306 4.92592 0.81543 C
atom 8.18319 5.34361 1.83030 H
atom 8.41818 5.72124 0.10323 H
atom 8.99381 3.58628 0.63624 C
atom 9.49454 3.23305 1.54701 H
atom 9.72588 3.60875 -0.18132 H
atom 7.67147 2.90740 0.31008 C
atom 6.79791 1.92181 -0.02515 C
atom 6.84250 0.86368 -0.24916 H
