lattice_vector 18.600708 0.0 0.0
lattice_vector 0.0 3.486688 0.0
lattice_vector -4.678377 0.0 3.785871
atom 9.90626 1.91253 1.19867 O
atom 9.97330 1.23990 2.40540 C
atom 9.01604 1.05248 2.87477 H
atom 11.28200 0.99176 2.67479 C
atom 12.51094 0.48972 3.41858 C
atom 12.58144 -0.59981 3.53158 H
atom 12.69604 0.95671 4.39455 H
atom 13.37031 1.08679 2.22615 C
atom 13.93781 0.34191 1.65335 H
atom 14.04876 1.90000 2.51465 H
atom 12.05202 1.52559 1.60534 C
atom 11.19044 2.08372 0.71482 C
atom 11.25397 2.60303 -0.23286 H
atom 4.01607 1.91253 2.58720 O
atom 3.94903 1.23990 1.38047 C
atom 4.90629 1.05248 0.91110 H
atom 2.64033 0.99176 1.11108 C
atom 1.41139 0.48972 0.36729 C
atom 1.34089 -0.59981 0.25429 H
atom 1.22629 0.95671 -0.60868 H
atom 0.55202 1.08679 1.55972 C
atom -0.01548 0.34191 2.13252 H
atom -0.12643 1.90000 1.27122 H
atom 1.87031 1.52559 2.18053 C
atom 2.73189 2.08372 3.07105 C
atom 2.66837 2.60303 4.01873 H
