title geometry
lattice_vector 11.671263 0.000000 0.000000
lattice_vector 0.000000 4.792420 0.000000
lattice_vector 7.789072 0.000000 5.004227
45.067439 -44.328585 138.444626 10.418019 1.679991 1.396162 /home/trose/genarris_mpi4py/merged_4_17_2019/tests/full_diverse_workflow/harris_single_molecule_prep_aims_dir/geometry
2.864563 -73.198727 71.924960 14.312555 3.112425 3.898276 /home/trose/genarris_mpi4py/merged_4_17_2019/tests/full_diverse_workflow/harris_single_molecule_prep_aims_dir/geometry
