lattice_vector 6.274158 0.0 0.0
lattice_vector 0.0 4.693178 0.0
lattice_vector 12.383811 0.0 8.051586
atom 4.45058 2.07612 1.11771 O
atom 3.37160 1.94925 0.26166 C
atom 3.29228 2.72659 -0.48750 H
atom 2.68298 0.83311 0.61782 C
atom 1.60666 -0.24232 0.59462 C
atom 1.58524 -0.86879 -0.30644 H
atom 0.58694 0.10519 0.80503 H
atom 2.35225 -0.89387 1.83416 C
atom 2.75854 -1.89658 1.64839 H
atom 1.76293 -0.91923 2.75985 H
atom 3.35210 0.24842 1.72780 C
atom 4.42939 1.02503 2.01620 C
atom 5.23655 1.02690 2.73753 H
atom 10.64249 2.61705 5.14350 O
atom 9.56351 2.74393 4.28746 C
atom 9.48419 1.96659 3.53829 H
atom 8.87489 3.86007 4.64361 C
atom 7.79857 4.93549 4.62041 C
atom 7.77715 5.56197 3.71936 H
atom 6.77885 4.58799 4.83082 H
atom 8.54415 5.58705 5.85995 C
atom 8.95045 6.58976 5.67418 H
atom 7.95484 5.61241 6.78565 H
atom 9.54400 4.44476 5.75359 C
atom 10.62129 3.66815 6.04200 C
atom 11.42845 3.66627 6.76332 H
