lattice_vector 5.395995 0.0 0.0
lattice_vector 0.0 13.946932 0.0
lattice_vector 3.598391 0.0 3.178185
atom 6.27831 12.93044 1.56076 O
atom 5.30404 12.28245 0.82319 C
atom 5.02627 12.77882 -0.09782 H
atom 4.95352 11.15289 1.49257 C
atom 4.23022 9.85111 1.80522 C
atom 4.41296 9.02915 1.10109 H
atom 3.14843 9.93924 1.96901 H
atom 5.09707 9.78852 3.13245 C
atom 5.77769 8.92949 3.19439 H
atom 4.51477 9.84344 4.06129 H
atom 5.73152 11.09611 2.68131 C
atom 6.53393 12.19272 2.70224 C
atom 7.28714 12.61307 3.35630 H
atom 4.47911 1.01649 -0.02833 O
atom 3.50484 1.66448 -0.76590 C
atom 3.22708 1.16811 -1.68691 H
atom 3.15432 2.79404 -0.09653 C
atom 2.43102 4.09582 0.21613 C
atom 2.61377 4.91779 -0.48801 H
atom 1.34923 4.00769 0.37992 H
atom 3.29788 4.15841 1.54336 C
atom 3.97849 5.01744 1.60530 H
atom 2.71557 4.10349 2.47220 H
atom 3.93232 2.85082 1.09222 C
atom 4.73474 1.75421 1.11314 C
atom 5.48795 1.33386 1.76720 H
