lattice_vector 14.483533 0.0 0.0
lattice_vector 0.0 2.964797 0.0
lattice_vector -4.292129 0.0 6.109491
atom 11.72911 0.29743 -0.43710 O
atom 10.50066 0.75699 -0.87622 C
atom 10.43104 0.91728 -1.94451 H
atom 9.68910 0.88363 0.20646 C
atom 8.44047 1.19061 1.02022 C
atom 7.56961 0.55825 0.80447 H
atom 8.12116 2.24080 1.01758 H
atom 9.27173 0.75537 2.29947 C
atom 8.87887 -0.12628 2.82229 H
atom 9.43386 1.55581 3.03286 H
atom 10.43371 0.49213 1.35272 C
atom 11.67772 0.13805 0.93567 C
atom 12.59412 -0.22078 1.38653 H
atom -1.53770 1.77982 6.54659 O
atom -0.30925 2.23939 6.98571 C
atom -0.23964 2.39968 8.05400 H
atom 0.50230 2.36603 5.90303 C
atom 1.75093 2.67301 5.08927 C
atom 2.62179 2.04065 5.30503 H
atom 2.07024 3.72320 5.09191 H
atom 0.91967 2.23777 3.81003 C
atom 1.31254 1.35611 3.28720 H
atom 0.75755 3.03820 3.07664 H
atom -0.24231 1.97453 4.75677 C
atom -1.48632 1.62045 5.17382 C
atom -2.40272 1.26162 4.72296 H
