lattice_vector 6.778414 0.0 0.0
lattice_vector 0.0 5.145011 0.0
lattice_vector 6.688758 0.0 7.485257
atom 3.62388 4.81877 2.10998 O
atom 3.38605 3.48384 2.38297 C
atom 4.21835 2.95661 2.83142 H
atom 2.11610 3.19626 1.99394 C
atom 0.85348 2.38366 1.74696 C
atom 0.35465 2.00194 2.64712 H
atom 0.95386 1.56208 1.02598 H
atom 0.21889 3.71085 1.15304 C
atom -0.64689 4.09284 1.70937 H
atom -0.04387 3.65490 0.08877 H
atom 1.54694 4.38614 1.46303 C
atom 2.48640 5.36479 1.54382 C
atom 2.56385 6.41405 1.28912 H
atom 6.96827 0.32625 5.85261 O
atom 6.73043 1.66117 6.12560 C
atom 7.56273 2.18840 6.57405 H
atom 5.46048 1.94875 5.73657 C
atom 4.19786 2.76136 5.48958 C
atom 3.69903 3.14307 6.38975 H
atom 4.29823 3.58293 4.76861 H
atom 3.56327 1.43416 4.89567 C
atom 2.69749 1.05217 5.45200 H
atom 3.30051 1.49011 3.83140 H
atom 4.89132 0.75887 5.20566 C
atom 5.83078 -0.21977 5.28645 C
atom 5.90823 -1.26904 5.03175 H
