lattice_vector 10.533111 0.0 0.0
lattice_vector 0.0 4.737115 0.0
lattice_vector -8.267782 0.0 6.076651
atom -3.19348 0.60801 5.60535 O
atom -3.71152 1.71429 4.95658 C
atom -2.97136 2.41520 4.59232 H
atom -5.06611 1.60521 4.95863 C
atom -6.52229 1.96037 4.69603 C
atom -6.81666 1.99267 3.63909 H
atom -6.88238 2.87267 5.18889 H
atom -6.89637 0.61260 5.44468 C
atom -7.40825 -0.13093 4.82007 H
atom -7.46978 0.74853 6.37072 H
atom -5.40123 0.39655 5.62830 C
atom -4.24117 -0.19634 6.01511 C
atom -3.94563 -1.09711 6.53768 H
atom 0.94041 4.12910 2.56703 O
atom 0.42237 3.02283 1.91826 C
atom 1.16253 2.32192 1.55400 H
atom -0.93222 3.13191 1.92031 C
atom -2.38840 2.77674 1.65771 C
atom -2.68277 2.74445 0.60076 H
atom -2.74849 1.86445 2.15057 H
atom -2.76248 4.12452 2.40635 C
atom -3.27436 4.86804 1.78174 H
atom -3.33589 3.98858 3.33240 H
atom -1.26734 4.34057 2.58998 C
atom -0.10728 4.93345 2.97678 C
atom 0.18826 5.83423 3.49935 H
