lattice_vector 14.817119 0.0 0.0
lattice_vector 0.0 3.938342 0.0
lattice_vector 2.932198 0.0 4.681567
atom 5.49694 1.67910 1.91415 O
atom 5.63744 2.30759 0.69007 C
atom 6.46914 1.95716 0.09233 H
atom 4.64632 3.23042 0.57651 C
atom 3.79554 4.33703 -0.02939 C
atom 3.25244 4.06711 -0.94427 H
atom 4.31085 5.29185 -0.19568 H
atom 2.92638 4.27677 1.29645 C
atom 1.88197 3.97438 1.14560 H
atom 2.94317 5.19623 1.89574 H
atom 3.86653 3.17532 1.76417 C
atom 4.40480 2.22039 2.56743 C
atom 4.20258 1.79705 3.54299 H
atom 12.25238 1.67910 2.76742 O
atom 12.11187 2.30759 3.99150 C
atom 11.28018 1.95716 4.58923 H
atom 13.10300 3.23042 4.10506 C
atom 13.95378 4.33703 4.71095 C
atom 14.49688 4.06711 5.62584 H
atom 13.43847 5.29185 4.87724 H
atom 14.82293 4.27677 3.38512 C
atom 15.86735 3.97438 3.53597 H
atom 14.80615 5.19623 2.78582 H
atom 13.88279 3.17532 2.91740 C
atom 13.34451 2.22039 2.11413 C
atom 13.54674 1.79705 1.13858 H
