title geometry
lattice_vector 11.981628 0.000000 0.000000
lattice_vector 0.000000 4.581853 0.000000
lattice_vector 0.227670 0.000000 4.201046
136.579077 -120.607239 -18.433635 2.558023 2.701525 4.304862 /home/trose/genarris_mpi4py/merged_4_17_2019/tests/full_diverse_workflow/harris_single_molecule_prep_aims_dir/geometry
43.420783 -59.392576 161.566669 9.651277 2.701525 -0.103825 /home/trose/genarris_mpi4py/merged_4_17_2019/tests/full_diverse_workflow/harris_single_molecule_prep_aims_dir/geometry
