lattice_vector 14.25333 0.0 0.0
lattice_vector 0.0 3.342468 0.0
lattice_vector 3.202453 0.0 3.049102
atom 4.81239 1.83889 -0.51151 O
atom 3.94415 2.09704 0.53378 C
atom 2.98116 1.60886 0.45552 H
atom 4.57298 2.92883 1.40529 C
atom 4.79292 3.80005 2.63335 C
atom 4.78627 3.27036 3.59472 H
atom 4.14014 4.67898 2.71216 H
atom 6.23938 4.10031 2.05498 C
atom 7.06632 3.74581 2.68386 H
atom 6.41913 5.15215 1.79780 H
atom 5.86985 3.19670 0.88760 C
atom 5.99418 2.52037 -0.28457 C
atom 6.74992 2.38709 -1.04806 H
atom 12.64339 1.83889 3.56062 O
atom 13.51163 2.09704 2.51533 C
atom 14.47463 1.60886 2.59358 H
atom 12.88280 2.92883 1.64381 C
atom 12.66286 3.80005 0.41575 C
atom 12.66951 3.27036 -0.54562 H
atom 13.31564 4.67898 0.33694 H
atom 11.21640 4.10031 0.99412 C
atom 10.38946 3.74581 0.36524 H
atom 11.03666 5.15215 1.25130 H
atom 11.58593 3.19670 2.16150 C
atom 11.46161 2.52037 3.33367 C
atom 10.70587 2.38709 4.09716 H
