lattice_vector 8.596383 0.0 0.0
lattice_vector 0.0 9.580366 0.0
lattice_vector -2.927705 0.0 3.386118
atom 7.86848 3.03555 0.31554 O
atom 6.84615 2.65570 -0.53515 C
atom 6.73091 3.27825 -1.41319 H
atom 6.24646 1.55724 -0.00546 C
atom 5.27486 0.39427 0.13256 C
atom 5.35217 -0.37939 -0.64223 H
atom 4.21910 0.67176 0.24763 H
atom 6.01883 0.04606 1.48982 C
atom 6.52295 -0.92902 1.49821 H
atom 5.39225 0.12568 2.38755 H
atom 6.91423 1.24436 1.21020 C
atom 7.90180 2.16113 1.38644 C
atom 8.67134 2.36832 2.11905 H
atom -2.19981 7.82573 3.07058 O
atom -1.17747 7.44589 3.92127 C
atom -1.06223 8.06843 4.79931 H
atom -0.57778 6.34742 3.39158 C
atom 0.39382 5.18446 3.25356 C
atom 0.31651 4.41080 4.02835 H
atom 1.44957 5.46194 3.13849 H
atom -0.35015 4.83625 1.89629 C
atom -0.85427 3.86116 1.88790 H
atom 0.27642 4.91586 0.99857 H
atom -1.24555 6.03454 2.17592 C
atom -2.23313 6.95132 1.99968 C
atom -3.00266 7.15850 1.26707 H
