lattice_vector 15.478543 0.0 0.0
lattice_vector 0.0 5.601063 0.0
lattice_vector -2.699671 0.0 2.732247
atom 1.03069 5.50307 -0.12786 O
atom 1.02710 4.19467 0.32068 C
atom 0.86720 3.45091 -0.44943 H
atom 1.23516 4.21136 1.66353 C
atom 1.42252 3.68959 3.08064 C
atom 2.31723 3.07464 3.24237 H
atom 0.55676 3.16999 3.51113 H
atom 1.57332 5.20467 3.52642 C
atom 2.55392 5.46246 3.94708 H
atom 0.79256 5.55897 4.21178 H
atom 1.37177 5.56915 2.06273 C
atom 1.24310 6.34100 0.95163 C
atom 1.26478 7.39620 0.71099 H
atom 11.74818 5.50307 2.86010 O
atom 11.75177 4.19467 2.41157 C
atom 11.91168 3.45091 3.18167 H
atom 11.54371 4.21136 1.06871 C
atom 11.35635 3.68959 -0.34839 C
atom 10.46164 3.07464 -0.51013 H
atom 12.22212 3.16999 -0.77888 H
atom 11.20555 5.20467 -0.79417 C
atom 10.22495 5.46246 -1.21483 H
atom 11.98631 5.55897 -1.47953 H
atom 11.40710 5.56915 0.66951 C
atom 11.53577 6.34100 1.78062 C
atom 11.51409 7.39620 2.02125 H
