title geometry
lattice_vector 12.783147 0.000000 0.000000
lattice_vector 0.000000 7.285126 0.000000
lattice_vector -1.467419 0.000000 2.556887
-159.670679 -62.163683 24.245643 8.245220 2.525169 2.049592 /home/trose/genarris_mpi4py/merged_4_17_2019/tests/full_diverse_workflow/harris_single_molecule_prep_aims_dir/geometry
-20.329213 -117.836333 -155.754037 3.070510 2.525169 0.507286 /home/trose/genarris_mpi4py/merged_4_17_2019/tests/full_diverse_workflow/harris_single_molecule_prep_aims_dir/geometry
