lattice_vector 4.612805 0.0 0.0
lattice_vector 0.0 10.044871 0.0
lattice_vector 1.429026 0.0 4.774497
atom 5.81066 2.56022 1.85946 O
atom 4.80972 3.28659 2.47884 C
atom 4.53348 4.20264 1.97254 H
atom 4.43714 2.61518 3.60010 C
atom 3.68567 2.29820 4.88476 C
atom 2.60932 2.11681 4.76905 H
atom 3.83552 3.00921 5.70749 H
atom 4.57045 0.98457 4.97657 C
atom 4.00405 0.04620 4.91607 H
atom 5.23240 0.93995 5.85103 H
atom 5.22912 1.43714 3.68151 C
atom 6.06162 1.42440 2.60744 C
atom 6.83418 0.77909 2.20927 H
atom 5.09615 7.48465 -0.52779 O
atom 4.09521 6.75829 0.09159 C
atom 3.81897 5.84224 -0.41471 H
atom 3.72262 7.42970 1.21285 C
atom 2.97116 7.74667 2.49751 C
atom 1.89480 7.92806 2.38180 H
atom 3.12101 7.03566 3.32024 H
atom 3.85594 9.06030 2.58932 C
atom 3.28954 9.99867 2.52882 H
atom 4.51789 9.10492 3.46378 H
atom 4.51461 8.60773 1.29427 C
atom 5.34711 8.62047 0.22019 C
atom 6.11967 9.26579 -0.17798 H
