lattice_vector 6.877023 0.0 0.0
lattice_vector 0.0 6.339866 0.0
lattice_vector -0.798962 0.0 5.954887
atom 5.10710 4.64521 4.99548 O
atom 4.00688 4.11686 4.34474 C
atom 3.75569 4.60187 3.41015 H
atom 3.52875 3.09016 5.09583 C
atom 2.63686 1.93221 5.51913 C
atom 2.65445 1.05685 4.85711 H
atom 1.59143 2.19312 5.72860 H
atom 3.55737 1.80603 6.80507 C
atom 4.10369 0.85731 6.88546 H
atom 3.04279 1.99709 7.75563 H
atom 4.35468 2.97620 6.24756 C
atom 5.31253 3.93673 6.16527 C
atom 6.15571 4.26996 6.75674 H
atom 0.97096 7.81514 0.95940 O
atom 2.07119 7.28679 1.61014 C
atom 2.32237 7.77180 2.54474 H
atom 2.54931 6.26010 0.85906 C
atom 3.44120 5.10214 0.43575 C
atom 3.42361 4.22679 1.09778 H
atom 4.48663 5.36306 0.22629 H
atom 2.52069 4.97597 -0.85019 C
atom 1.97437 4.02725 -0.93058 H
atom 3.03527 5.16702 -1.80074 H
atom 1.72338 6.14614 -0.29267 C
atom 0.76553 7.10667 -0.21038 C
atom -0.07765 7.43989 -0.80185 H
