lattice_vector 7.846478 0.0 0.0
lattice_vector 0.0 5.767005 0.0
lattice_vector 2.700792 0.0 5.892702
atom 2.93770 2.39145 1.35368 O
atom 2.79118 1.23691 0.60623 C
atom 2.45886 1.39406 -0.41194 H
atom 3.12098 0.18147 1.39624 C
atom 3.36148 -1.26151 1.81516 C
atom 4.17188 -1.77783 1.28460 H
atom 2.47414 -1.90765 1.81512 H
atom 3.76364 -0.69047 3.23962 C
atom 4.80495 -0.87953 3.53107 H
atom 3.10613 -1.00542 4.06018 H
atom 3.48282 0.69345 2.67240 C
atom 3.36320 2.04628 2.62346 C
atom 3.51092 2.88130 3.29633 H
atom 7.60957 2.39145 4.53902 O
atom 7.75609 1.23691 5.28647 C
atom 8.08841 1.39406 6.30464 H
atom 7.42629 0.18147 4.49646 C
atom 7.18579 -1.26151 4.07754 C
atom 6.37539 -1.77783 4.60810 H
atom 8.07313 -1.90765 4.07759 H
atom 6.78363 -0.69047 2.65308 C
atom 5.74232 -0.87953 2.36163 H
atom 7.44114 -1.00542 1.83253 H
atom 7.06445 0.69345 3.22030 C
atom 7.18407 2.04628 3.26924 C
atom 7.03635 2.88130 2.59638 H
