lattice_vector 5.201736 0.0 0.0
lattice_vector 0.0 4.573368 0.0
lattice_vector 2.097528 0.0 9.975905
atom 5.29350 1.95549 -0.29785 O
atom 4.33067 1.09070 -0.78591 C
atom 4.24521 1.06821 -1.86479 H
atom 3.73554 0.48433 0.27474 C
atom 2.79247 -0.42573 1.04801 C
atom 2.93462 -1.50160 0.88330 H
atom 1.72431 -0.19335 0.94854 H
atom 3.47126 0.13551 2.36754 C
atom 4.00262 -0.61704 2.96447 H
atom 2.79461 0.69389 3.02724 H
atom 4.34496 0.98629 1.45723 C
atom 5.29409 1.88415 1.08326 C
atom 6.01611 2.52607 1.57156 H
atom 6.34227 2.61787 4.69010 O
atom 5.37944 3.48267 4.20204 C
atom 5.29398 3.50516 3.12316 H
atom 4.78431 4.08904 5.26269 C
atom 3.84124 4.99909 6.03596 C
atom 3.98338 6.07497 5.87125 H
atom 2.77308 4.76672 5.93649 H
atom 4.52002 4.43785 7.35549 C
atom 5.05138 5.19041 7.95242 H
atom 3.84337 3.87947 8.01519 H
atom 5.39372 3.58708 6.44518 C
atom 6.34285 2.68921 6.07121 C
atom 7.06488 2.04730 6.55951 H
