title geometry
lattice_vector 4.136356 0.000000 0.000000
lattice_vector 0.000000 13.253558 0.000000
lattice_vector -6.550880 0.000000 6.130798
-148.795605 -65.553403 -77.817856 -1.937232 10.501391 2.854293 /home/trose/genarris_mpi4py/merged_4_17_2019/tests/full_diverse_workflow/harris_single_molecule_prep_aims_dir/geometry
102.152161 -85.587680 -32.583247 -1.937232 2.752163 2.854293 /home/trose/genarris_mpi4py/merged_4_17_2019/tests/full_diverse_workflow/harris_single_molecule_prep_aims_dir/geometry
