lattice_vector 4.253772 0.0 0.0
lattice_vector 0.0 13.720982 0.0
lattice_vector -0.831385 0.0 3.396841
atom 1.65636 4.92337 -0.42472 O
atom 0.84888 3.80759 -0.29774 C
atom -0.10534 3.87743 -0.80409 H
atom 1.51085 2.89535 0.46152 C
atom 1.78604 1.60074 1.21237 C
atom 1.85161 0.69918 0.58970 H
atom 1.11888 1.39481 2.05933 H
atom 3.18630 2.23073 1.61150 C
atom 4.05884 1.69118 1.22090 H
atom 3.32488 2.39046 2.68859 H
atom 2.76638 3.45946 0.81795 C
atom 2.83357 4.69932 0.26559 C
atom 3.54335 5.51592 0.23143 H
atom 1.65636 8.79762 -0.42472 O
atom 0.84888 9.91340 -0.29774 C
atom -0.10534 9.84355 -0.80409 H
atom 1.51085 10.82563 0.46152 C
atom 1.78604 12.12024 1.21237 C
atom 1.85161 13.02180 0.58970 H
atom 1.11888 12.32617 2.05933 H
atom 3.18630 11.49026 1.61150 C
atom 4.05884 12.02980 1.22090 H
atom 3.32488 11.33053 2.68859 H
atom 2.76638 10.26153 0.81795 C
atom 2.83357 9.02167 0.26559 C
atom 3.54335 8.20506 0.23143 H
