lattice_vector 4.590644 0.0 0.0
lattice_vector 0.0 6.235008 0.0
lattice_vector -3.598717 0.0 8.794243
atom 0.98226 2.46925 9.58028 O
atom 0.11779 3.11374 8.71401 C
atom 0.07425 4.18890 8.83208 H
atom -0.46016 2.17301 7.92165 C
atom -1.34722 1.57390 6.84011 C
atom -1.10503 1.87309 5.81216 H
atom -2.42731 1.69299 6.99527 H
atom -0.76927 0.16032 7.26983 C
atom -0.19600 -0.35621 6.48909 H
atom -1.51615 -0.53434 7.67537 H
atom 0.05897 0.90632 8.30586 C
atom 0.93849 1.11147 9.32134 C
atom 1.58286 0.50796 9.94775 H
atom 2.78162 3.76576 5.18316 O
atom 1.91715 3.12126 4.31689 C
atom 1.87361 2.04611 4.43496 H
atom 1.33920 4.06199 3.52453 C
atom 0.45214 4.66110 2.44299 C
atom 0.69433 4.36192 1.41504 H
atom -0.62796 4.54202 2.59815 H
atom 1.03009 6.07468 2.87271 C
atom 1.60336 6.59122 2.09197 H
atom 0.28321 6.76934 3.27825 H
atom 1.85833 5.32869 3.90874 C
atom 2.73785 5.12354 4.92422 C
atom 3.38222 5.72705 5.55063 H
