title geometry
lattice_vector 4.590644 0.000000 0.000000
lattice_vector 0.000000 6.235008 0.000000
lattice_vector -3.598717 0.000000 8.794243
80.241715 -72.520495 -99.805897 -0.057530 1.652612 8.292653 /home/trose/genarris_mpi4py/merged_4_17_2019/tests/full_diverse_workflow/harris_single_molecule_prep_aims_dir/geometry
-117.868492 -104.415703 -22.016435 1.741828 4.582393 3.895531 /home/trose/genarris_mpi4py/merged_4_17_2019/tests/full_diverse_workflow/harris_single_molecule_prep_aims_dir/geometry
