lattice_vector 3.081003 0.0 0.0
lattice_vector 0.0 17.814537 0.0
lattice_vector 1.891543 0.0 5.088841
atom 2.46353 16.16348 2.46535 O
atom 2.67032 15.50364 1.26745 C
atom 2.67645 16.14134 0.39275 H
atom 2.81457 14.17963 1.53770 C
atom 3.02974 12.69312 1.29371 C
atom 4.01069 12.41953 0.88419 H
atom 2.25092 12.19369 0.70306 H
atom 2.89322 12.50363 2.86290 C
atom 3.79449 12.11878 3.35748 H
atom 2.03382 11.89714 3.17665 H
atom 2.69369 14.01009 2.94421 C
atom 2.47928 15.23570 3.49079 C
atom 2.32581 15.64821 4.47978 H
atom 2.46353 1.65105 2.46535 O
atom 2.67032 2.31090 1.26745 C
atom 2.67645 1.67320 0.39275 H
atom 2.81457 3.63491 1.53770 C
atom 3.02974 5.12141 1.29371 C
atom 4.01069 5.39501 0.88419 H
atom 2.25092 5.62084 0.70306 H
atom 2.89322 5.31091 2.86290 C
atom 3.79449 5.69576 3.35748 H
atom 2.03382 5.91740 3.17665 H
atom 2.69369 3.80445 2.94421 C
atom 2.47928 2.57883 3.49079 C
atom 2.32581 2.16633 4.47978 H
