lattice_vector 13.389227 0.0 0.0
lattice_vector 0.0 3.982959 0.0
lattice_vector -2.880422 0.0 2.931668
atom 10.54064 1.86215 0.41793 O
atom 9.29500 1.91467 -0.18102 C
atom 9.22025 2.60154 -1.01434 H
atom 8.47774 1.04936 0.47486 C
atom 7.21555 0.27825 0.83233 C
atom 6.85415 -0.41718 0.06383 H
atom 6.37138 0.88831 1.17883 H
atom 8.06120 -0.39952 1.99096 C
atom 8.18533 -1.48567 1.89157 H
atom 7.70584 -0.17761 3.00551 H
atom 9.23611 0.44089 1.51228 C
atom 10.49386 0.95282 1.45882 C
atom 11.42365 0.83273 2.00001 H
atom -0.03183 3.85363 2.51374 O
atom 1.21381 3.90615 3.11268 C
atom 1.28855 4.59302 3.94601 H
atom 2.03107 3.04084 2.45681 C
atom 3.29326 2.26973 2.09933 C
atom 3.65465 1.57430 2.86784 H
atom 4.13743 2.87979 1.75284 H
atom 2.44761 1.59196 0.94071 C
atom 2.32348 0.50581 1.04009 H
atom 2.80296 1.81387 -0.07384 H
atom 1.27269 2.43237 1.41938 C
atom 0.01495 2.94430 1.47284 C
atom -0.91485 2.82421 0.93166 H
