lattice_vector 4.433474 0.0 0.0
lattice_vector 0.0 3.999711 0.0
lattice_vector 4.980363 0.0 10.38523
atom 9.37818 2.56226 9.36803 O
atom 9.31284 3.07336 8.08444 C
atom 10.05087 3.83272 7.85975 H
atom 8.29401 2.44979 7.43637 C
atom 7.33062 2.08881 6.31516 C
atom 7.78867 1.63123 5.42880 H
atom 6.66255 2.89600 5.98809 H
atom 6.67542 1.05714 7.32674 C
atom 6.75377 0.00534 7.02247 H
atom 5.63031 1.27160 7.58480 H
atom 7.70781 1.52416 8.34256 C
atom 8.38629 1.61014 9.51692 C
atom 8.34748 1.14246 10.49242 H
atom 0.03566 2.56226 1.01719 O
atom 0.10100 3.07336 2.30079 C
atom -0.63703 3.83272 2.52548 H
atom 1.11983 2.44979 2.94886 C
atom 2.08322 2.08881 4.07007 C
atom 1.62516 1.63123 4.95643 H
atom 2.75129 2.89600 4.39714 H
atom 2.73842 1.05714 3.05849 C
atom 2.66006 0.00534 3.36276 H
atom 3.78353 1.27160 2.80043 H
atom 1.70603 1.52416 2.04267 C
atom 1.02755 1.61014 0.86831 C
atom 1.06636 1.14246 -0.10719 H
