lattice_vector 14.7553860286 0 0
lattice_vector 5.60497214006e-16 9.15361415873 0
lattice_vector 3.96573417313 2.68492323853e-16 7.34878089394
atom 10.47648 7.58677 5.87199 S
atom 8.09884 9.06844 5.87199 C
atom 7.96667 6.40684 6.44171 C
atom 7.02566 7.68036 5.66165 S
atom 9.38658 6.38684 6.53413 C
atom 9.46506 9.03491 5.95221 C
atom 10.22236 10.22677 6.08415 C
atom 7.39636 10.30036 5.92456 C
atom 10.88485 11.18300 6.17198 N
atom 6.78036 11.29080 5.94290 N
atom 9.79719 5.22903 7.18578 C
atom 11.10916 4.81683 7.48969 C
atom 12.19083 4.46504 7.74795 N
atom 7.31872 5.37852 6.96030 N
atom 8.39049 4.29175 7.57551 S
atom 8.49362 1.56684 2.19760 S
atom 6.11597 0.08517 2.19760 C
atom 5.98380 2.74678 2.76732 C
atom 5.04279 1.47325 1.98726 S
atom 7.40371 2.76677 2.85974 C
atom 7.48219 0.11871 2.27782 C
atom 8.23950 -1.07316 2.40976 C
atom 5.41349 -1.14675 2.25017 C
atom 8.90198 -2.02939 2.49759 N
atom 4.79749 -2.13718 2.26851 N
atom 7.81432 3.92458 3.51139 C
atom 9.12629 4.33678 3.81530 C
atom 10.20796 4.68857 4.07356 N
atom 5.33585 3.77510 3.28591 N
atom 6.40762 4.86186 3.90112 S
atom 17.85418 3.00997 5.87199 S
atom 15.47653 4.49164 5.87199 C
atom 15.34436 1.83003 6.44171 C
atom 14.40335 3.10356 5.66165 S
atom 16.76427 1.81004 6.53413 C
atom 16.84275 4.45810 5.95221 C
atom 17.60006 5.64996 6.08415 C
atom 14.77405 5.72356 5.92456 C
atom 18.26254 6.60620 6.17198 N
atom 14.15805 6.71399 5.94290 N
atom 17.17488 0.65223 7.18578 C
atom 18.48685 0.24002 7.48969 C
atom 19.56853 -0.11176 7.74795 N
atom 14.69641 0.80171 6.96030 N
atom 15.76818 -0.28505 7.57551 S
atom 15.87131 6.14365 2.19760 S
atom 13.49366 4.66198 2.19760 C
atom 13.36150 7.32358 2.76732 C
atom 12.42049 6.05006 1.98726 S
atom 14.78141 7.34358 2.85974 C
atom 14.85988 4.69552 2.27782 C
atom 15.61719 3.50365 2.40976 C
atom 12.79119 3.43006 2.25017 C
atom 16.27967 2.54742 2.49759 N
atom 12.17518 2.43962 2.26851 N
atom 15.19202 8.50139 3.51139 C
atom 16.50398 8.91359 3.81530 C
atom 17.58566 9.26538 4.07356 N
atom 12.71354 8.35191 3.28591 N
atom 13.78532 9.43867 3.90112 S
atom -8.24464 -1.56684 -1.47679 S
atom -10.62228 -0.08517 -1.47679 C
atom -10.75445 -2.74678 -0.90707 C
atom -11.69546 -1.47325 -1.68713 S
atom -9.33454 -2.76677 -0.81465 C
atom -9.25606 -0.11871 -1.39657 C
atom -8.49876 1.07316 -1.26463 C
atom -11.32476 1.14675 -1.42422 C
atom -7.83627 2.02939 -1.17680 N
atom -11.94076 2.13718 -1.40588 N
atom -8.92393 -3.92458 -0.16300 C
atom -7.61196 -4.33678 0.14091 C
atom -6.53029 -4.68857 0.39916 N
atom -11.40240 -3.77510 -0.38848 N
atom -10.33063 -4.86186 0.22673 S
atom -10.22750 -7.58677 -5.15118 S
atom -12.60515 -9.06844 -5.15118 C
atom -12.73732 -6.40684 -4.58146 C
atom -13.67833 -7.68036 -5.36152 S
atom -11.31741 -6.38684 -4.48904 C
atom -11.23893 -9.03491 -5.07096 C
atom -10.48162 -10.22677 -4.93902 C
atom -13.30763 -10.30036 -5.09861 C
atom -9.81914 -11.18300 -4.85119 N
atom -13.92363 -11.29080 -5.08027 N
atom -10.90680 -5.22903 -3.83739 C
atom -9.59483 -4.81683 -3.53348 C
atom -8.51315 -4.46504 -3.27523 N
atom -13.38527 -5.37852 -4.06287 N
atom -12.31350 -4.29175 -3.44766 S
atom -0.86694 -6.14365 -1.47679 S
atom -3.24459 -4.66198 -1.47679 C
atom -3.37676 -7.32358 -0.90707 C
atom -4.31777 -6.05006 -1.68713 S
atom -1.95685 -7.34358 -0.81465 C
atom -1.87837 -4.69552 -1.39657 C
atom -1.12106 -3.50365 -1.26463 C
atom -3.94707 -3.43006 -1.42422 C
atom -0.45858 -2.54742 -1.17680 N
atom -4.56307 -2.43962 -1.40588 N
atom -1.54624 -8.50139 -0.16300 C
atom -0.23427 -8.91359 0.14091 C
atom 0.84741 -9.26538 0.39916 N
atom -4.02471 -8.35191 -0.38848 N
atom -2.95294 -9.43867 0.22673 S
atom -2.84981 -3.00997 -5.15118 S
atom -5.22746 -4.49164 -5.15118 C
atom -5.35963 -1.83003 -4.58146 C
atom -6.30063 -3.10356 -5.36152 S
atom -3.93971 -1.81004 -4.48904 C
atom -3.86124 -4.45810 -5.07096 C
atom -3.10393 -5.64996 -4.93902 C
atom -5.92993 -5.72356 -5.09861 C
atom -2.44145 -6.60620 -4.85119 N
atom -6.54594 -6.71399 -5.08027 N
atom -3.52910 -0.65223 -3.83739 C
atom -2.21714 -0.24002 -3.53348 C
atom -1.13546 0.11176 -3.27523 N
atom -6.00758 -0.80171 -4.06287 N
atom -4.93580 0.28506 -3.44766 S
atom 6.51075 -1.56684 -1.47679 S
atom 4.13310 -0.08517 -1.47679 C
atom 4.00094 -2.74678 -0.90707 C
atom 3.05992 -1.47325 -1.68713 S
atom 5.42085 -2.76677 -0.81465 C
atom 5.49932 -0.11871 -1.39657 C
atom 6.25663 1.07316 -1.26463 C
atom 3.43063 1.14675 -1.42422 C
atom 6.91911 2.02939 -1.17680 N
atom 2.81462 2.13718 -1.40588 N
atom 5.83146 -3.92458 -0.16300 C
atom 7.14342 -4.33678 0.14091 C
atom 8.22510 -4.68857 0.39916 N
atom 3.35298 -3.77510 -0.38848 N
atom 4.42476 -4.86186 0.22673 S
atom 4.52788 -7.58677 -5.15118 S
atom 2.15024 -9.06844 -5.15118 C
atom 2.01807 -6.40684 -4.58146 C
atom 1.07706 -7.68036 -5.36152 S
atom 3.43798 -6.38684 -4.48904 C
atom 3.51646 -9.03491 -5.07096 C
atom 4.27376 -10.22677 -4.93902 C
atom 1.44776 -10.30036 -5.09861 C
atom 4.93624 -11.18300 -4.85119 N
atom 0.83176 -11.29080 -5.08027 N
atom 3.84859 -5.22903 -3.83739 C
atom 5.16055 -4.81683 -3.53348 C
atom 6.24223 -4.46504 -3.27523 N
atom 1.37012 -5.37852 -4.06287 N
atom 2.44189 -4.29175 -3.44766 S
atom 13.88844 -6.14365 -1.47679 S
atom 11.51080 -4.66198 -1.47679 C
atom 11.37863 -7.32358 -0.90707 C
atom 10.43762 -6.05006 -1.68713 S
atom 12.79854 -7.34358 -0.81465 C
atom 12.87702 -4.69552 -1.39657 C
atom 13.63432 -3.50365 -1.26463 C
atom 10.80832 -3.43006 -1.42422 C
atom 14.29680 -2.54742 -1.17680 N
atom 10.19232 -2.43962 -1.40588 N
atom 13.20915 -8.50139 -0.16300 C
atom 14.52111 -8.91359 0.14091 C
atom 15.60279 -9.26538 0.39916 N
atom 10.73068 -8.35191 -0.38848 N
atom 11.80245 -9.43867 0.22673 S
atom 11.90557 -3.00997 -5.15118 S
atom 9.52793 -4.49164 -5.15118 C
atom 9.39576 -1.83003 -4.58146 C
atom 8.45475 -3.10356 -5.36152 S
atom 10.81567 -1.81004 -4.48904 C
atom 10.89415 -4.45810 -5.07096 C
atom 11.65145 -5.64996 -4.93902 C
atom 8.82545 -5.72356 -5.09861 C
atom 12.31394 -6.60620 -4.85119 N
atom 8.20945 -6.71399 -5.08027 N
atom 11.22628 -0.65223 -3.83739 C
atom 12.53825 -0.24002 -3.53348 C
atom 13.61992 0.11176 -3.27523 N
atom 8.74781 -0.80171 -4.06287 N
atom 9.81958 0.28506 -3.44766 S
atom 21.26613 -1.56684 -1.47679 S
atom 18.88849 -0.08517 -1.47679 C
atom 18.75632 -2.74678 -0.90707 C
atom 17.81531 -1.47325 -1.68713 S
atom 20.17623 -2.76677 -0.81465 C
atom 20.25471 -0.11871 -1.39657 C
atom 21.01201 1.07316 -1.26463 C
atom 18.18601 1.14675 -1.42422 C
atom 21.67450 2.02939 -1.17680 N
atom 17.57001 2.13718 -1.40588 N
atom 20.58684 -3.92458 -0.16300 C
atom 21.89881 -4.33678 0.14091 C
atom 22.98048 -4.68857 0.39916 N
atom 18.10837 -3.77510 -0.38848 N
atom 19.18014 -4.86186 0.22673 S
atom 19.28327 -7.58677 -5.15118 S
atom 16.90562 -9.06844 -5.15118 C
atom 16.77345 -6.40684 -4.58146 C
atom 15.83244 -7.68036 -5.36152 S
atom 18.19337 -6.38684 -4.48904 C
atom 18.27184 -9.03491 -5.07096 C
atom 19.02915 -10.22677 -4.93902 C
atom 16.20315 -10.30036 -5.09861 C
atom 19.69163 -11.18300 -4.85119 N
atom 15.58714 -11.29080 -5.08027 N
atom 18.60398 -5.22903 -3.83739 C
atom 19.91594 -4.81683 -3.53348 C
atom 20.99762 -4.46504 -3.27523 N
atom 16.12550 -5.37852 -4.06287 N
atom 17.19728 -4.29175 -3.44766 S
atom 28.64383 -6.14365 -1.47679 S
atom 26.26618 -4.66198 -1.47679 C
atom 26.13401 -7.32358 -0.90707 C
atom 25.19300 -6.05006 -1.68713 S
atom 27.55392 -7.34358 -0.81465 C
atom 27.63240 -4.69552 -1.39657 C
atom 28.38971 -3.50365 -1.26463 C
atom 25.56371 -3.43006 -1.42422 C
atom 29.05219 -2.54742 -1.17680 N
atom 24.94770 -2.43962 -1.40588 N
atom 27.96453 -8.50139 -0.16300 C
atom 29.27650 -8.91359 0.14091 C
atom 30.35818 -9.26538 0.39916 N
atom 25.48606 -8.35191 -0.38848 N
atom 26.55784 -9.43867 0.22673 S
atom 26.66096 -3.00997 -5.15118 S
atom 24.28331 -4.49164 -5.15118 C
atom 24.15115 -1.83003 -4.58146 C
atom 23.21014 -3.10356 -5.36152 S
atom 25.57106 -1.81004 -4.48904 C
atom 25.64953 -4.45810 -5.07096 C
atom 26.40684 -5.64996 -4.93902 C
atom 23.58084 -5.72356 -5.09861 C
atom 27.06932 -6.60620 -4.85119 N
atom 22.96484 -6.71399 -5.08027 N
atom 25.98167 -0.65223 -3.83739 C
atom 27.29363 -0.24002 -3.53348 C
atom 28.37531 0.11176 -3.27523 N
atom 23.50319 -0.80171 -4.06287 N
atom 24.57497 0.28506 -3.44766 S
atom -8.24464 7.58677 -1.47679 S
atom -10.62228 9.06844 -1.47679 C
atom -10.75445 6.40684 -0.90707 C
atom -11.69546 7.68036 -1.68713 S
atom -9.33454 6.38684 -0.81465 C
atom -9.25606 9.03491 -1.39657 C
atom -8.49876 10.22677 -1.26463 C
atom -11.32476 10.30036 -1.42422 C
atom -7.83627 11.18300 -1.17680 N
atom -11.94076 11.29080 -1.40588 N
atom -8.92393 5.22903 -0.16300 C
atom -7.61196 4.81683 0.14091 C
atom -6.53029 4.46504 0.39916 N
atom -11.40240 5.37852 -0.38848 N
atom -10.33063 4.29175 0.22673 S
atom -10.22750 1.56684 -5.15118 S
atom -12.60515 0.08517 -5.15118 C
atom -12.73732 2.74678 -4.58146 C
atom -13.67833 1.47325 -5.36152 S
atom -11.31741 2.76677 -4.48904 C
atom -11.23893 0.11871 -5.07096 C
atom -10.48162 -1.07316 -4.93902 C
atom -13.30763 -1.14675 -5.09861 C
atom -9.81914 -2.02939 -4.85119 N
atom -13.92363 -2.13718 -5.08027 N
atom -10.90680 3.92458 -3.83739 C
atom -9.59483 4.33678 -3.53348 C
atom -8.51315 4.68857 -3.27523 N
atom -13.38527 3.77510 -4.06287 N
atom -12.31350 4.86186 -3.44766 S
atom -0.86694 3.00997 -1.47679 S
atom -3.24459 4.49164 -1.47679 C
atom -3.37676 1.83003 -0.90707 C
atom -4.31777 3.10356 -1.68713 S
atom -1.95685 1.81004 -0.81465 C
atom -1.87837 4.45810 -1.39657 C
atom -1.12106 5.64996 -1.26463 C
atom -3.94707 5.72356 -1.42422 C
atom -0.45858 6.60620 -1.17680 N
atom -4.56307 6.71399 -1.40588 N
atom -1.54624 0.65223 -0.16300 C
atom -0.23427 0.24002 0.14091 C
atom 0.84741 -0.11176 0.39916 N
atom -4.02471 0.80171 -0.38848 N
atom -2.95294 -0.28505 0.22673 S
atom -2.84981 6.14365 -5.15118 S
atom -5.22746 4.66198 -5.15118 C
atom -5.35963 7.32358 -4.58146 C
atom -6.30063 6.05006 -5.36152 S
atom -3.93971 7.34358 -4.48904 C
atom -3.86124 4.69552 -5.07096 C
atom -3.10393 3.50365 -4.93902 C
atom -5.92993 3.43006 -5.09861 C
atom -2.44145 2.54742 -4.85119 N
atom -6.54594 2.43962 -5.08027 N
atom -3.52910 8.50139 -3.83739 C
atom -2.21714 8.91359 -3.53348 C
atom -1.13546 9.26538 -3.27523 N
atom -6.00758 8.35191 -4.06287 N
atom -4.93580 9.43867 -3.44766 S
atom 6.51075 7.58677 -1.47679 S
atom 4.13310 9.06844 -1.47679 C
atom 4.00094 6.40684 -0.90707 C
atom 3.05992 7.68036 -1.68713 S
atom 5.42085 6.38684 -0.81465 C
atom 5.49932 9.03491 -1.39657 C
atom 6.25663 10.22677 -1.26463 C
atom 3.43063 10.30036 -1.42422 C
atom 6.91911 11.18300 -1.17680 N
atom 2.81462 11.29080 -1.40588 N
atom 5.83146 5.22903 -0.16300 C
atom 7.14342 4.81683 0.14091 C
atom 8.22510 4.46504 0.39916 N
atom 3.35298 5.37852 -0.38848 N
atom 4.42476 4.29175 0.22673 S
atom 4.52788 1.56684 -5.15118 S
atom 2.15024 0.08517 -5.15118 C
atom 2.01807 2.74678 -4.58146 C
atom 1.07706 1.47325 -5.36152 S
atom 3.43798 2.76677 -4.48904 C
atom 3.51646 0.11871 -5.07096 C
atom 4.27376 -1.07316 -4.93902 C
atom 1.44776 -1.14675 -5.09861 C
atom 4.93624 -2.02939 -4.85119 N
atom 0.83176 -2.13718 -5.08027 N
atom 3.84859 3.92458 -3.83739 C
atom 5.16055 4.33678 -3.53348 C
atom 6.24223 4.68857 -3.27523 N
atom 1.37012 3.77510 -4.06287 N
atom 2.44189 4.86186 -3.44766 S
atom 13.88844 3.00997 -1.47679 S
atom 11.51080 4.49164 -1.47679 C
atom 11.37863 1.83003 -0.90707 C
atom 10.43762 3.10356 -1.68713 S
atom 12.79854 1.81004 -0.81465 C
atom 12.87702 4.45810 -1.39657 C
atom 13.63432 5.64996 -1.26463 C
atom 10.80832 5.72356 -1.42422 C
atom 14.29680 6.60620 -1.17680 N
atom 10.19232 6.71399 -1.40588 N
atom 13.20915 0.65223 -0.16300 C
atom 14.52111 0.24002 0.14091 C
atom 15.60279 -0.11176 0.39916 N
atom 10.73068 0.80171 -0.38848 N
atom 11.80245 -0.28505 0.22673 S
atom 11.90557 6.14365 -5.15118 S
atom 9.52793 4.66198 -5.15118 C
atom 9.39576 7.32358 -4.58146 C
atom 8.45475 6.05006 -5.36152 S
atom 10.81567 7.34358 -4.48904 C
atom 10.89415 4.69552 -5.07096 C
atom 11.65145 3.50365 -4.93902 C
atom 8.82545 3.43006 -5.09861 C
atom 12.31394 2.54742 -4.85119 N
atom 8.20945 2.43962 -5.08027 N
atom 11.22628 8.50139 -3.83739 C
atom 12.53825 8.91359 -3.53348 C
atom 13.61992 9.26538 -3.27523 N
atom 8.74781 8.35191 -4.06287 N
atom 9.81958 9.43867 -3.44766 S
atom 21.26613 7.58677 -1.47679 S
atom 18.88849 9.06844 -1.47679 C
atom 18.75632 6.40684 -0.90707 C
atom 17.81531 7.68036 -1.68713 S
atom 20.17623 6.38684 -0.81465 C
atom 20.25471 9.03491 -1.39657 C
atom 21.01201 10.22677 -1.26463 C
atom 18.18601 10.30036 -1.42422 C
atom 21.67450 11.18300 -1.17680 N
atom 17.57001 11.29080 -1.40588 N
atom 20.58684 5.22903 -0.16300 C
atom 21.89881 4.81683 0.14091 C
atom 22.98048 4.46504 0.39916 N
atom 18.10837 5.37852 -0.38848 N
atom 19.18014 4.29175 0.22673 S
atom 19.28327 1.56684 -5.15118 S
atom 16.90562 0.08517 -5.15118 C
atom 16.77345 2.74678 -4.58146 C
atom 15.83244 1.47325 -5.36152 S
atom 18.19337 2.76677 -4.48904 C
atom 18.27184 0.11871 -5.07096 C
atom 19.02915 -1.07316 -4.93902 C
atom 16.20315 -1.14675 -5.09861 C
atom 19.69163 -2.02939 -4.85119 N
atom 15.58714 -2.13718 -5.08027 N
atom 18.60398 3.92458 -3.83739 C
atom 19.91594 4.33678 -3.53348 C
atom 20.99762 4.68857 -3.27523 N
atom 16.12550 3.77510 -4.06287 N
atom 17.19728 4.86186 -3.44766 S
atom 28.64383 3.00997 -1.47679 S
atom 26.26618 4.49164 -1.47679 C
atom 26.13401 1.83003 -0.90707 C
atom 25.19300 3.10356 -1.68713 S
atom 27.55392 1.81004 -0.81465 C
atom 27.63240 4.45810 -1.39657 C
atom 28.38971 5.64996 -1.26463 C
atom 25.56371 5.72356 -1.42422 C
atom 29.05219 6.60620 -1.17680 N
atom 24.94770 6.71399 -1.40588 N
atom 27.96453 0.65223 -0.16300 C
atom 29.27650 0.24002 0.14091 C
atom 30.35818 -0.11176 0.39916 N
atom 25.48606 0.80171 -0.38848 N
atom 26.55784 -0.28505 0.22673 S
atom 26.66096 6.14365 -5.15118 S
atom 24.28331 4.66198 -5.15118 C
atom 24.15115 7.32358 -4.58146 C
atom 23.21014 6.05006 -5.36152 S
atom 25.57106 7.34358 -4.48904 C
atom 25.64953 4.69552 -5.07096 C
atom 26.40684 3.50365 -4.93902 C
atom 23.58084 3.43006 -5.09861 C
atom 27.06932 2.54742 -4.85119 N
atom 22.96484 2.43962 -5.08027 N
atom 25.98167 8.50139 -3.83739 C
atom 27.29363 8.91359 -3.53348 C
atom 28.37531 9.26538 -3.27523 N
atom 23.50319 8.35191 -4.06287 N
atom 24.57497 9.43867 -3.44766 S
atom -8.24464 16.74039 -1.47679 S
atom -10.62228 18.22206 -1.47679 C
atom -10.75445 15.56045 -0.90707 C
atom -11.69546 16.83398 -1.68713 S
atom -9.33454 15.54046 -0.81465 C
atom -9.25606 18.18852 -1.39657 C
atom -8.49876 19.38038 -1.26463 C
atom -11.32476 19.45398 -1.42422 C
atom -7.83627 20.33662 -1.17680 N
atom -11.94076 20.44441 -1.40588 N
atom -8.92393 14.38265 -0.16300 C
atom -7.61196 13.97044 0.14091 C
atom -6.53029 13.61866 0.39916 N
atom -11.40240 14.53213 -0.38848 N
atom -10.33063 13.44537 0.22673 S
atom -10.22750 10.72045 -5.15118 S
atom -12.60515 9.23878 -5.15118 C
atom -12.73732 11.90039 -4.58146 C
atom -13.67833 10.62686 -5.36152 S
atom -11.31741 11.92039 -4.48904 C
atom -11.23893 9.27232 -5.07096 C
atom -10.48162 8.08046 -4.93902 C
atom -13.30763 8.00686 -5.09861 C
atom -9.81914 7.12422 -4.85119 N
atom -13.92363 7.01643 -5.08027 N
atom -10.90680 13.07820 -3.83739 C
atom -9.59483 13.49040 -3.53348 C
atom -8.51315 13.84219 -3.27523 N
atom -13.38527 12.92871 -4.06287 N
atom -12.31350 14.01548 -3.44766 S
atom -0.86694 12.16358 -1.47679 S
atom -3.24459 13.64525 -1.47679 C
atom -3.37676 10.98365 -0.90707 C
atom -4.31777 12.25717 -1.68713 S
atom -1.95685 10.96365 -0.81465 C
atom -1.87837 13.61171 -1.39657 C
atom -1.12106 14.80358 -1.26463 C
atom -3.94707 14.87717 -1.42422 C
atom -0.45858 15.75981 -1.17680 N
atom -4.56307 15.86760 -1.40588 N
atom -1.54624 9.80584 -0.16300 C
atom -0.23427 9.39364 0.14091 C
atom 0.84741 9.04185 0.39916 N
atom -4.02471 9.95532 -0.38848 N
atom -2.95294 8.86856 0.22673 S
atom -2.84981 15.29726 -5.15118 S
atom -5.22746 13.81559 -5.15118 C
atom -5.35963 16.47720 -4.58146 C
atom -6.30063 15.20367 -5.36152 S
atom -3.93971 16.49719 -4.48904 C
atom -3.86124 13.84913 -5.07096 C
atom -3.10393 12.65726 -4.93902 C
atom -5.92993 12.58367 -5.09861 C
atom -2.44145 11.70103 -4.85119 N
atom -6.54594 11.59324 -5.08027 N
atom -3.52910 17.65500 -3.83739 C
atom -2.21714 18.06721 -3.53348 C
atom -1.13546 18.41899 -3.27523 N
atom -6.00758 17.50552 -4.06287 N
atom -4.93580 18.59228 -3.44766 S
atom 6.51075 16.74039 -1.47679 S
atom 4.13310 18.22206 -1.47679 C
atom 4.00094 15.56045 -0.90707 C
atom 3.05992 16.83398 -1.68713 S
atom 5.42085 15.54046 -0.81465 C
atom 5.49932 18.18852 -1.39657 C
atom 6.25663 19.38038 -1.26463 C
atom 3.43063 19.45398 -1.42422 C
atom 6.91911 20.33662 -1.17680 N
atom 2.81462 20.44441 -1.40588 N
atom 5.83146 14.38265 -0.16300 C
atom 7.14342 13.97044 0.14091 C
atom 8.22510 13.61866 0.39916 N
atom 3.35298 14.53213 -0.38848 N
atom 4.42476 13.44537 0.22673 S
atom 4.52788 10.72045 -5.15118 S
atom 2.15024 9.23878 -5.15118 C
atom 2.01807 11.90039 -4.58146 C
atom 1.07706 10.62686 -5.36152 S
atom 3.43798 11.92039 -4.48904 C
atom 3.51646 9.27232 -5.07096 C
atom 4.27376 8.08046 -4.93902 C
atom 1.44776 8.00686 -5.09861 C
atom 4.93624 7.12422 -4.85119 N
atom 0.83176 7.01643 -5.08027 N
atom 3.84859 13.07820 -3.83739 C
atom 5.16055 13.49040 -3.53348 C
atom 6.24223 13.84219 -3.27523 N
atom 1.37012 12.92871 -4.06287 N
atom 2.44189 14.01548 -3.44766 S
atom 13.88844 12.16358 -1.47679 S
atom 11.51080 13.64525 -1.47679 C
atom 11.37863 10.98365 -0.90707 C
atom 10.43762 12.25717 -1.68713 S
atom 12.79854 10.96365 -0.81465 C
atom 12.87702 13.61171 -1.39657 C
atom 13.63432 14.80358 -1.26463 C
atom 10.80832 14.87717 -1.42422 C
atom 14.29680 15.75981 -1.17680 N
atom 10.19232 15.86760 -1.40588 N
atom 13.20915 9.80584 -0.16300 C
atom 14.52111 9.39364 0.14091 C
atom 15.60279 9.04185 0.39916 N
atom 10.73068 9.95532 -0.38848 N
atom 11.80245 8.86856 0.22673 S
atom 11.90557 15.29726 -5.15118 S
atom 9.52793 13.81559 -5.15118 C
atom 9.39576 16.47720 -4.58146 C
atom 8.45475 15.20367 -5.36152 S
atom 10.81567 16.49719 -4.48904 C
atom 10.89415 13.84913 -5.07096 C
atom 11.65145 12.65726 -4.93902 C
atom 8.82545 12.58367 -5.09861 C
atom 12.31394 11.70103 -4.85119 N
atom 8.20945 11.59324 -5.08027 N
atom 11.22628 17.65500 -3.83739 C
atom 12.53825 18.06721 -3.53348 C
atom 13.61992 18.41899 -3.27523 N
atom 8.74781 17.50552 -4.06287 N
atom 9.81958 18.59228 -3.44766 S
atom 21.26613 16.74039 -1.47679 S
atom 18.88849 18.22206 -1.47679 C
atom 18.75632 15.56045 -0.90707 C
atom 17.81531 16.83398 -1.68713 S
atom 20.17623 15.54046 -0.81465 C
atom 20.25471 18.18852 -1.39657 C
atom 21.01201 19.38038 -1.26463 C
atom 18.18601 19.45398 -1.42422 C
atom 21.67450 20.33662 -1.17680 N
atom 17.57001 20.44441 -1.40588 N
atom 20.58684 14.38265 -0.16300 C
atom 21.89881 13.97044 0.14091 C
atom 22.98048 13.61866 0.39916 N
atom 18.10837 14.53213 -0.38848 N
atom 19.18014 13.44537 0.22673 S
atom 19.28327 10.72045 -5.15118 S
atom 16.90562 9.23878 -5.15118 C
atom 16.77345 11.90039 -4.58146 C
atom 15.83244 10.62686 -5.36152 S
atom 18.19337 11.92039 -4.48904 C
atom 18.27184 9.27232 -5.07096 C
atom 19.02915 8.08046 -4.93902 C
atom 16.20315 8.00686 -5.09861 C
atom 19.69163 7.12422 -4.85119 N
atom 15.58714 7.01643 -5.08027 N
atom 18.60398 13.07820 -3.83739 C
atom 19.91594 13.49040 -3.53348 C
atom 20.99762 13.84219 -3.27523 N
atom 16.12550 12.92871 -4.06287 N
atom 17.19728 14.01548 -3.44766 S
atom 28.64383 12.16358 -1.47679 S
atom 26.26618 13.64525 -1.47679 C
atom 26.13401 10.98365 -0.90707 C
atom 25.19300 12.25717 -1.68713 S
atom 27.55392 10.96365 -0.81465 C
atom 27.63240 13.61171 -1.39657 C
atom 28.38971 14.80358 -1.26463 C
atom 25.56371 14.87717 -1.42422 C
atom 29.05219 15.75981 -1.17680 N
atom 24.94770 15.86760 -1.40588 N
atom 27.96453 9.80584 -0.16300 C
atom 29.27650 9.39364 0.14091 C
atom 30.35818 9.04185 0.39916 N
atom 25.48606 9.95532 -0.38848 N
atom 26.55784 8.86856 0.22673 S
atom 26.66096 15.29726 -5.15118 S
atom 24.28331 13.81559 -5.15118 C
atom 24.15115 16.47720 -4.58146 C
atom 23.21014 15.20367 -5.36152 S
atom 25.57106 16.49719 -4.48904 C
atom 25.64953 13.84913 -5.07096 C
atom 26.40684 12.65726 -4.93902 C
atom 23.58084 12.58367 -5.09861 C
atom 27.06932 11.70103 -4.85119 N
atom 22.96484 11.59324 -5.08027 N
atom 25.98167 17.65500 -3.83739 C
atom 27.29363 18.06721 -3.53348 C
atom 28.37531 18.41899 -3.27523 N
atom 23.50319 17.50552 -4.06287 N
atom 24.57497 18.59228 -3.44766 S
atom -4.27890 -1.56684 5.87199 S
atom -6.65655 -0.08517 5.87199 C
atom -6.78872 -2.74678 6.44171 C
atom -7.72973 -1.47325 5.66165 S
atom -5.36881 -2.76677 6.53413 C
atom -5.29033 -0.11871 5.95221 C
atom -4.53302 1.07316 6.08415 C
atom -7.35903 1.14675 5.92456 C
atom -3.87054 2.02939 6.17198 N
atom -7.97503 2.13718 5.94290 N
atom -4.95820 -3.92458 7.18578 C
atom -3.64623 -4.33678 7.48969 C
atom -2.56455 -4.68857 7.74795 N
atom -7.43667 -3.77510 6.96030 N
atom -6.36489 -4.86186 7.57551 S
atom -6.26177 -7.58677 2.19760 S
atom -8.63942 -9.06844 2.19760 C
atom -8.77158 -6.40684 2.76732 C
atom -9.71259 -7.68036 1.98726 S
atom -7.35167 -6.38684 2.85974 C
atom -7.27320 -9.03491 2.27782 C
atom -6.51589 -10.22677 2.40976 C
atom -9.34189 -10.30036 2.25017 C
atom -5.85341 -11.18300 2.49759 N
atom -9.95789 -11.29080 2.26851 N
atom -6.94106 -5.22903 3.51139 C
atom -5.62910 -4.81683 3.81530 C
atom -4.54742 -4.46504 4.07356 N
atom -9.41954 -5.37852 3.28591 N
atom -8.34776 -4.29175 3.90112 S
atom 3.09879 -6.14365 5.87199 S
atom 0.72114 -4.66198 5.87199 C
atom 0.58898 -7.32358 6.44171 C
atom -0.35203 -6.05006 5.66165 S
atom 2.00889 -7.34358 6.53413 C
atom 2.08736 -4.69552 5.95221 C
atom 2.84467 -3.50365 6.08415 C
atom 0.01867 -3.43006 5.92456 C
atom 3.50715 -2.54742 6.17198 N
atom -0.59733 -2.43962 5.94290 N
atom 2.41950 -8.50139 7.18578 C
atom 3.73146 -8.91359 7.48969 C
atom 4.81314 -9.26538 7.74795 N
atom -0.05898 -8.35191 6.96030 N
atom 1.01280 -9.43867 7.57551 S
atom 1.11592 -3.00997 2.19760 S
atom -1.26172 -4.49164 2.19760 C
atom -1.39389 -1.83003 2.76732 C
atom -2.33490 -3.10356 1.98726 S
atom 0.02602 -1.81004 2.85974 C
atom 0.10450 -4.45810 2.27782 C
atom 0.86180 -5.64996 2.40976 C
atom -1.96420 -5.72356 2.25017 C
atom 1.52428 -6.60620 2.49759 N
atom -2.58020 -6.71399 2.26851 N
atom 0.43663 -0.65223 3.51139 C
atom 1.74859 -0.24002 3.81530 C
atom 2.83027 0.11176 4.07356 N
atom -2.04184 -0.80171 3.28591 N
atom -0.97007 0.28506 3.90112 S
atom 10.47648 -1.56684 5.87199 S
atom 8.09884 -0.08517 5.87199 C
atom 7.96667 -2.74678 6.44171 C
atom 7.02566 -1.47325 5.66165 S
atom 9.38658 -2.76677 6.53413 C
atom 9.46506 -0.11871 5.95221 C
atom 10.22236 1.07316 6.08415 C
atom 7.39636 1.14675 5.92456 C
atom 10.88485 2.02939 6.17198 N
atom 6.78036 2.13718 5.94290 N
atom 9.79719 -3.92458 7.18578 C
atom 11.10916 -4.33678 7.48969 C
atom 12.19083 -4.68857 7.74795 N
atom 7.31872 -3.77510 6.96030 N
atom 8.39049 -4.86186 7.57551 S
atom 8.49362 -7.58677 2.19760 S
atom 6.11597 -9.06844 2.19760 C
atom 5.98380 -6.40684 2.76732 C
atom 5.04279 -7.68036 1.98726 S
atom 7.40371 -6.38684 2.85974 C
atom 7.48219 -9.03491 2.27782 C
atom 8.23950 -10.22677 2.40976 C
atom 5.41349 -10.30036 2.25017 C
atom 8.90198 -11.18300 2.49759 N
atom 4.79749 -11.29080 2.26851 N
atom 7.81432 -5.22903 3.51139 C
atom 9.12629 -4.81683 3.81530 C
atom 10.20796 -4.46504 4.07356 N
atom 5.33585 -5.37852 3.28591 N
atom 6.40762 -4.29175 3.90112 S
atom 17.85418 -6.14365 5.87199 S
atom 15.47653 -4.66198 5.87199 C
atom 15.34436 -7.32358 6.44171 C
atom 14.40335 -6.05006 5.66165 S
atom 16.76427 -7.34358 6.53413 C
atom 16.84275 -4.69552 5.95221 C
atom 17.60006 -3.50365 6.08415 C
atom 14.77405 -3.43006 5.92456 C
atom 18.26254 -2.54742 6.17198 N
atom 14.15805 -2.43962 5.94290 N
atom 17.17488 -8.50139 7.18578 C
atom 18.48685 -8.91359 7.48969 C
atom 19.56853 -9.26538 7.74795 N
atom 14.69641 -8.35191 6.96030 N
atom 15.76818 -9.43867 7.57551 S
atom 15.87131 -3.00997 2.19760 S
atom 13.49366 -4.49164 2.19760 C
atom 13.36150 -1.83003 2.76732 C
atom 12.42049 -3.10356 1.98726 S
atom 14.78141 -1.81004 2.85974 C
atom 14.85988 -4.45810 2.27782 C
atom 15.61719 -5.64996 2.40976 C
atom 12.79119 -5.72356 2.25017 C
atom 16.27967 -6.60620 2.49759 N
atom 12.17518 -6.71399 2.26851 N
atom 15.19202 -0.65223 3.51139 C
atom 16.50398 -0.24002 3.81530 C
atom 17.58566 0.11176 4.07356 N
atom 12.71354 -0.80171 3.28591 N
atom 13.78532 0.28506 3.90112 S
atom 25.23187 -1.56684 5.87199 S
atom 22.85422 -0.08517 5.87199 C
atom 22.72206 -2.74678 6.44171 C
atom 21.78105 -1.47325 5.66165 S
atom 24.14197 -2.76677 6.53413 C
atom 24.22044 -0.11871 5.95221 C
atom 24.97775 1.07316 6.08415 C
atom 22.15175 1.14675 5.92456 C
atom 25.64023 2.02939 6.17198 N
atom 21.53574 2.13718 5.94290 N
atom 24.55258 -3.92458 7.18578 C
atom 25.86454 -4.33678 7.48969 C
atom 26.94622 -4.68857 7.74795 N
atom 22.07410 -3.77510 6.96030 N
atom 23.14588 -4.86186 7.57551 S
atom 23.24900 -7.58677 2.19760 S
atom 20.87136 -9.06844 2.19760 C
atom 20.73919 -6.40684 2.76732 C
atom 19.79818 -7.68036 1.98726 S
atom 22.15910 -6.38684 2.85974 C
atom 22.23758 -9.03491 2.27782 C
atom 22.99488 -10.22677 2.40976 C
atom 20.16888 -10.30036 2.25017 C
atom 23.65736 -11.18300 2.49759 N
atom 19.55288 -11.29080 2.26851 N
atom 22.56971 -5.22903 3.51139 C
atom 23.88167 -4.81683 3.81530 C
atom 24.96335 -4.46504 4.07356 N
atom 20.09124 -5.37852 3.28591 N
atom 21.16301 -4.29175 3.90112 S
atom 32.60956 -6.14365 5.87199 S
atom 30.23192 -4.66198 5.87199 C
atom 30.09975 -7.32358 6.44171 C
atom 29.15874 -6.05006 5.66165 S
atom 31.51966 -7.34358 6.53413 C
atom 31.59814 -4.69552 5.95221 C
atom 32.35544 -3.50365 6.08415 C
atom 29.52944 -3.43006 5.92456 C
atom 33.01793 -2.54742 6.17198 N
atom 28.91344 -2.43962 5.94290 N
atom 31.93027 -8.50139 7.18578 C
atom 33.24223 -8.91359 7.48969 C
atom 34.32391 -9.26538 7.74795 N
atom 29.45180 -8.35191 6.96030 N
atom 30.52357 -9.43867 7.57551 S
atom 30.62669 -3.00997 2.19760 S
atom 28.24905 -4.49164 2.19760 C
atom 28.11688 -1.83003 2.76732 C
atom 27.17587 -3.10356 1.98726 S
atom 29.53679 -1.81004 2.85974 C
atom 29.61527 -4.45810 2.27782 C
atom 30.37258 -5.64996 2.40976 C
atom 27.54657 -5.72356 2.25017 C
atom 31.03506 -6.60620 2.49759 N
atom 26.93057 -6.71399 2.26851 N
atom 29.94740 -0.65223 3.51139 C
atom 31.25937 -0.24002 3.81530 C
atom 32.34105 0.11176 4.07356 N
atom 27.46893 -0.80171 3.28591 N
atom 28.54070 0.28506 3.90112 S
atom -4.27890 7.58677 5.87199 S
atom -6.65655 9.06844 5.87199 C
atom -6.78872 6.40684 6.44171 C
atom -7.72973 7.68036 5.66165 S
atom -5.36881 6.38684 6.53413 C
atom -5.29033 9.03491 5.95221 C
atom -4.53302 10.22677 6.08415 C
atom -7.35903 10.30036 5.92456 C
atom -3.87054 11.18300 6.17198 N
atom -7.97503 11.29080 5.94290 N
atom -4.95820 5.22903 7.18578 C
atom -3.64623 4.81683 7.48969 C
atom -2.56455 4.46504 7.74795 N
atom -7.43667 5.37852 6.96030 N
atom -6.36489 4.29175 7.57551 S
atom -6.26177 1.56684 2.19760 S
atom -8.63942 0.08517 2.19760 C
atom -8.77158 2.74678 2.76732 C
atom -9.71259 1.47325 1.98726 S
atom -7.35167 2.76677 2.85974 C
atom -7.27320 0.11871 2.27782 C
atom -6.51589 -1.07316 2.40976 C
atom -9.34189 -1.14675 2.25017 C
atom -5.85341 -2.02939 2.49759 N
atom -9.95789 -2.13718 2.26851 N
atom -6.94106 3.92458 3.51139 C
atom -5.62910 4.33678 3.81530 C
atom -4.54742 4.68857 4.07356 N
atom -9.41954 3.77510 3.28591 N
atom -8.34776 4.86186 3.90112 S
atom 3.09879 3.00997 5.87199 S
atom 0.72114 4.49164 5.87199 C
atom 0.58898 1.83003 6.44171 C
atom -0.35203 3.10356 5.66165 S
atom 2.00889 1.81004 6.53413 C
atom 2.08736 4.45810 5.95221 C
atom 2.84467 5.64996 6.08415 C
atom 0.01867 5.72356 5.92456 C
atom 3.50715 6.60620 6.17198 N
atom -0.59733 6.71399 5.94290 N
atom 2.41950 0.65223 7.18578 C
atom 3.73146 0.24002 7.48969 C
atom 4.81314 -0.11176 7.74795 N
atom -0.05898 0.80171 6.96030 N
atom 1.01280 -0.28505 7.57551 S
atom 1.11592 6.14365 2.19760 S
atom -1.26172 4.66198 2.19760 C
atom -1.39389 7.32358 2.76732 C
atom -2.33490 6.05006 1.98726 S
atom 0.02602 7.34358 2.85974 C
atom 0.10450 4.69552 2.27782 C
atom 0.86180 3.50365 2.40976 C
atom -1.96420 3.43006 2.25017 C
atom 1.52428 2.54742 2.49759 N
atom -2.58020 2.43962 2.26851 N
atom 0.43663 8.50139 3.51139 C
atom 1.74859 8.91359 3.81530 C
atom 2.83027 9.26538 4.07356 N
atom -2.04184 8.35191 3.28591 N
atom -0.97007 9.43867 3.90112 S
atom 25.23187 7.58677 5.87199 S
atom 22.85422 9.06844 5.87199 C
atom 22.72206 6.40684 6.44171 C
atom 21.78105 7.68036 5.66165 S
atom 24.14197 6.38684 6.53413 C
atom 24.22044 9.03491 5.95221 C
atom 24.97775 10.22677 6.08415 C
atom 22.15175 10.30036 5.92456 C
atom 25.64023 11.18300 6.17198 N
atom 21.53574 11.29080 5.94290 N
atom 24.55258 5.22903 7.18578 C
atom 25.86454 4.81683 7.48969 C
atom 26.94622 4.46504 7.74795 N
atom 22.07410 5.37852 6.96030 N
atom 23.14588 4.29175 7.57551 S
atom 23.24900 1.56684 2.19760 S
atom 20.87136 0.08517 2.19760 C
atom 20.73919 2.74678 2.76732 C
atom 19.79818 1.47325 1.98726 S
atom 22.15910 2.76677 2.85974 C
atom 22.23758 0.11871 2.27782 C
atom 22.99488 -1.07316 2.40976 C
atom 20.16888 -1.14675 2.25017 C
atom 23.65736 -2.02939 2.49759 N
atom 19.55288 -2.13718 2.26851 N
atom 22.56971 3.92458 3.51139 C
atom 23.88167 4.33678 3.81530 C
atom 24.96335 4.68857 4.07356 N
atom 20.09124 3.77510 3.28591 N
atom 21.16301 4.86186 3.90112 S
atom 32.60956 3.00997 5.87199 S
atom 30.23192 4.49164 5.87199 C
atom 30.09975 1.83003 6.44171 C
atom 29.15874 3.10356 5.66165 S
atom 31.51966 1.81004 6.53413 C
atom 31.59814 4.45810 5.95221 C
atom 32.35544 5.64996 6.08415 C
atom 29.52944 5.72356 5.92456 C
atom 33.01793 6.60620 6.17198 N
atom 28.91344 6.71399 5.94290 N
atom 31.93027 0.65223 7.18578 C
atom 33.24223 0.24002 7.48969 C
atom 34.32391 -0.11176 7.74795 N
atom 29.45180 0.80171 6.96030 N
atom 30.52357 -0.28505 7.57551 S
atom 30.62669 6.14365 2.19760 S
atom 28.24905 4.66198 2.19760 C
atom 28.11688 7.32358 2.76732 C
atom 27.17587 6.05006 1.98726 S
atom 29.53679 7.34358 2.85974 C
atom 29.61527 4.69552 2.27782 C
atom 30.37258 3.50365 2.40976 C
atom 27.54657 3.43006 2.25017 C
atom 31.03506 2.54742 2.49759 N
atom 26.93057 2.43962 2.26851 N
atom 29.94740 8.50139 3.51139 C
atom 31.25937 8.91359 3.81530 C
atom 32.34105 9.26538 4.07356 N
atom 27.46893 8.35191 3.28591 N
atom 28.54070 9.43867 3.90112 S
atom -4.27890 16.74039 5.87199 S
atom -6.65655 18.22206 5.87199 C
atom -6.78872 15.56045 6.44171 C
atom -7.72973 16.83398 5.66165 S