lattice_vector 10.1009868723 0 0
lattice_vector 9.16066585067e-16 14.9605026642 0
lattice_vector 4.07081030791e-16 4.07081030791e-16 6.64813775
atom 3.10096 8.89146 4.16184 S
atom 3.27457 10.96562 6.03701 C
atom 3.16687 8.40003 6.94934 C
atom 2.64879 10.02696 7.39717 S
atom 3.36311 7.94884 5.61404 C
atom 3.45149 10.51999 4.75474 C
atom 3.92884 11.38400 3.73637 C
atom 3.57005 12.30838 6.38853 C
atom 4.29872 12.06504 2.86438 N
atom 3.78044 13.40787 6.71654 N
atom 3.74347 6.61130 5.62282 C
atom 4.04017 5.78083 4.52472 C
atom 4.28931 5.08337 3.62364 N
atom 3.36682 7.51933 7.91402 N
atom 3.78130 6.06348 7.26831 S
atom 7.00003 6.06904 0.83777 S
atom 6.82642 3.99488 2.71295 C
atom 6.93411 6.56048 3.62527 C
atom 7.45220 4.93355 4.07311 S
atom 6.73788 7.01166 2.28998 C
atom 6.64950 4.44051 1.43067 C
atom 6.17214 3.57650 0.41230 C
atom 6.53094 2.65213 3.06446 C
atom 5.80227 2.89546 -0.45969 N
atom 6.32054 1.55263 3.39247 N
atom 6.35751 8.34920 2.29875 C
atom 6.06082 9.17967 1.20065 C
atom 5.81168 9.87713 0.29957 N
atom 6.73417 7.44117 4.58996 N
atom 6.31969 8.89702 3.94424 S
atom 8.15145 13.54929 4.16184 S
atom 8.32506 11.47513 6.03701 C
atom 8.21737 14.04073 6.94934 C
atom 7.69929 12.41380 7.39717 S
atom 8.41360 14.49192 5.61404 C
atom 8.50198 11.92076 4.75474 C
atom 8.97934 11.05676 3.73637 C
atom 8.62054 10.13238 6.38853 C
atom 9.34921 10.37572 2.86438 N
atom 8.83094 9.03288 6.71654 N
atom 8.79397 15.82946 5.62282 C
atom 9.09066 16.65992 4.52472 C
atom 9.33980 17.35739 3.62364 N
atom 8.41731 14.92142 7.91402 N
atom 8.83179 16.37728 7.26831 S
atom 1.94954 1.41121 0.83777 S
atom 1.77592 3.48537 2.71295 C
atom 1.88362 0.91978 3.62527 C
atom 2.40170 2.54671 4.07311 S
atom 1.68739 0.46859 2.28998 C
atom 1.59900 3.03974 1.43067 C
atom 1.12165 3.90375 0.41230 C
atom 1.48044 4.82812 3.06446 C
atom 0.75178 4.58479 -0.45969 N
atom 1.27005 5.92762 3.39247 N
atom 1.30702 -0.86895 2.29875 C
atom 1.01033 -1.69942 1.20065 C
atom 0.76119 -2.39688 0.29957 N
atom 1.68368 0.03908 4.58996 N
atom 1.26920 -1.41677 3.94424 S
atom -7.00003 -6.06904 -2.48630 S
atom -6.82642 -3.99488 -0.61112 C
atom -6.93411 -6.56048 0.30120 C
atom -7.45220 -4.93355 0.74904 S
atom -6.73788 -7.01166 -1.03409 C
atom -6.64950 -4.44051 -1.89340 C
atom -6.17214 -3.57650 -2.91177 C
atom -6.53094 -2.65213 -0.25961 C
atom -5.80227 -2.89546 -3.78376 N
atom -6.32054 -1.55263 0.06840 N
atom -6.35751 -8.34920 -1.02532 C
atom -6.06082 -9.17967 -2.12342 C
atom -5.81168 -9.87713 -3.02450 N
atom -6.73417 -7.44117 1.26589 N
atom -6.31969 -8.89702 0.62018 S
atom -3.10096 -8.89146 -5.81037 S
atom -3.27457 -10.96562 -3.93519 C
atom -3.16687 -8.40003 -3.02287 C
atom -2.64879 -10.02696 -2.57503 S
atom -3.36311 -7.94884 -4.35816 C
atom -3.45149 -10.51999 -5.21747 C
atom -3.92884 -11.38400 -6.23584 C
atom -3.57005 -12.30838 -3.58368 C
atom -4.29872 -12.06504 -7.10783 N
atom -3.78044 -13.40787 -3.25567 N
atom -3.74347 -6.61130 -4.34939 C
atom -4.04017 -5.78083 -5.44749 C
atom -4.28931 -5.08337 -6.34857 N
atom -3.36682 -7.51933 -2.05818 N
atom -3.78130 -6.06348 -2.70389 S
atom -1.94953 -1.41121 -2.48630 S
atom -1.77592 -3.48537 -0.61112 C
atom -1.88362 -0.91978 0.30120 C
atom -2.40170 -2.54671 0.74904 S
atom -1.68739 -0.46859 -1.03409 C
atom -1.59900 -3.03974 -1.89340 C
atom -1.12165 -3.90375 -2.91177 C
atom -1.48044 -4.82812 -0.25961 C
atom -0.75178 -4.58479 -3.78376 N
atom -1.27005 -5.92762 0.06840 N
atom -1.30702 0.86895 -1.02532 C
atom -1.01033 1.69942 -2.12342 C
atom -0.76119 2.39688 -3.02450 N
atom -1.68368 -0.03908 1.26589 N
atom -1.26920 1.41677 0.62018 S
atom -8.15145 -13.54929 -5.81037 S
atom -8.32506 -11.47513 -3.93519 C
atom -8.21737 -14.04073 -3.02287 C
atom -7.69929 -12.41380 -2.57503 S
atom -8.41360 -14.49192 -4.35816 C
atom -8.50198 -11.92077 -5.21747 C
atom -8.97934 -11.05676 -6.23584 C
atom -8.62054 -10.13238 -3.58368 C
atom -9.34921 -10.37572 -7.10783 N
atom -8.83094 -9.03288 -3.25567 N
atom -8.79397 -15.82946 -4.34939 C
atom -9.09066 -16.65992 -5.44749 C
atom -9.33980 -17.35739 -6.34857 N
atom -8.41731 -14.92142 -2.05818 N
atom -8.83179 -16.37728 -2.70389 S
atom 3.10096 -6.06904 -2.48630 S
atom 3.27457 -3.99488 -0.61112 C
atom 3.16687 -6.56048 0.30120 C
atom 2.64879 -4.93355 0.74904 S
atom 3.36311 -7.01166 -1.03409 C
atom 3.45149 -4.44051 -1.89340 C
atom 3.92884 -3.57650 -2.91177 C
atom 3.57005 -2.65213 -0.25961 C
atom 4.29872 -2.89546 -3.78376 N
atom 3.78044 -1.55263 0.06840 N
atom 3.74347 -8.34920 -1.02532 C
atom 4.04017 -9.17967 -2.12342 C
atom 4.28931 -9.87713 -3.02450 N
atom 3.36682 -7.44117 1.26589 N
atom 3.78130 -8.89702 0.62018 S
atom 7.00003 -8.89146 -5.81037 S
atom 6.82642 -10.96562 -3.93519 C
atom 6.93411 -8.40003 -3.02287 C
atom 7.45220 -10.02696 -2.57503 S
atom 6.73788 -7.94884 -4.35816 C
atom 6.64950 -10.51999 -5.21747 C
atom 6.17214 -11.38400 -6.23584 C
atom 6.53094 -12.30838 -3.58368 C
atom 5.80227 -12.06504 -7.10783 N
atom 6.32054 -13.40787 -3.25567 N
atom 6.35751 -6.61130 -4.34939 C
atom 6.06082 -5.78083 -5.44749 C
atom 5.81168 -5.08337 -6.34857 N
atom 6.73417 -7.51933 -2.05818 N
atom 6.31969 -6.06348 -2.70389 S
atom 8.15145 -1.41121 -2.48630 S
atom 8.32506 -3.48537 -0.61112 C
atom 8.21737 -0.91978 0.30120 C
atom 7.69929 -2.54671 0.74904 S
atom 8.41360 -0.46859 -1.03409 C
atom 8.50198 -3.03974 -1.89340 C
atom 8.97934 -3.90375 -2.91177 C
atom 8.62054 -4.82812 -0.25961 C
atom 9.34921 -4.58479 -3.78376 N
atom 8.83094 -5.92762 0.06840 N
atom 8.79397 0.86895 -1.02532 C
atom 9.09066 1.69942 -2.12342 C
atom 9.33980 2.39688 -3.02450 N
atom 8.41731 -0.03908 1.26589 N
atom 8.83179 1.41677 0.62018 S
atom 1.94954 -13.54929 -5.81037 S
atom 1.77592 -11.47513 -3.93519 C
atom 1.88362 -14.04073 -3.02287 C
atom 2.40170 -12.41380 -2.57503 S
atom 1.68739 -14.49192 -4.35816 C
atom 1.59900 -11.92077 -5.21747 C
atom 1.12165 -11.05676 -6.23584 C
atom 1.48044 -10.13238 -3.58368 C
atom 0.75178 -10.37572 -7.10783 N
atom 1.27005 -9.03288 -3.25567 N
atom 1.30702 -15.82946 -4.34939 C
atom 1.01033 -16.65992 -5.44749 C
atom 0.76119 -17.35739 -6.34857 N
atom 1.68368 -14.92142 -2.05818 N
atom 1.26920 -16.37728 -2.70389 S
atom 13.20195 -6.06904 -2.48630 S
atom 13.37556 -3.99488 -0.61112 C
atom 13.26786 -6.56048 0.30120 C
atom 12.74978 -4.93355 0.74904 S
atom 13.46409 -7.01166 -1.03409 C
atom 13.55248 -4.44051 -1.89340 C
atom 14.02983 -3.57650 -2.91177 C
atom 13.67104 -2.65213 -0.25961 C
atom 14.39970 -2.89546 -3.78376 N
atom 13.88143 -1.55263 0.06840 N
atom 13.84446 -8.34920 -1.02532 C
atom 14.14115 -9.17967 -2.12342 C
atom 14.39029 -9.87713 -3.02450 N
atom 13.46780 -7.44117 1.26589 N
atom 13.88228 -8.89702 0.62018 S
atom 17.10102 -8.89146 -5.81037 S
atom 16.92740 -10.96562 -3.93519 C
atom 17.03510 -8.40003 -3.02287 C
atom 17.55318 -10.02696 -2.57503 S
atom 16.83887 -7.94884 -4.35816 C
atom 16.75048 -10.51999 -5.21747 C
atom 16.27313 -11.38400 -6.23584 C
atom 16.63192 -12.30838 -3.58368 C
atom 15.90326 -12.06504 -7.10783 N
atom 16.42153 -13.40787 -3.25567 N
atom 16.45850 -6.61130 -4.34939 C
atom 16.16181 -5.78083 -5.44749 C
atom 15.91267 -5.08337 -6.34857 N
atom 16.83516 -7.51933 -2.05818 N
atom 16.42068 -6.06348 -2.70389 S
atom 18.25244 -1.41121 -2.48630 S
atom 18.42605 -3.48537 -0.61112 C
atom 18.31835 -0.91978 0.30120 C
atom 17.80027 -2.54671 0.74904 S
atom 18.51459 -0.46859 -1.03409 C
atom 18.60297 -3.03974 -1.89340 C
atom 19.08033 -3.90375 -2.91177 C
atom 18.72153 -4.82812 -0.25961 C
atom 19.45020 -4.58479 -3.78376 N
atom 18.93192 -5.92762 0.06840 N
atom 18.89495 0.86895 -1.02532 C
atom 19.19165 1.69942 -2.12342 C
atom 19.44079 2.39688 -3.02450 N
atom 18.51830 -0.03908 1.26589 N
atom 18.93278 1.41677 0.62018 S
atom 12.05052 -13.54929 -5.81037 S
atom 11.87691 -11.47513 -3.93519 C
atom 11.98461 -14.04073 -3.02287 C
atom 12.50269 -12.41380 -2.57503 S
atom 11.78837 -14.49192 -4.35816 C
atom 11.69999 -11.92077 -5.21747 C
atom 11.22264 -11.05676 -6.23584 C
atom 11.58143 -10.13238 -3.58368 C
atom 10.85276 -10.37572 -7.10783 N
atom 11.37104 -9.03288 -3.25567 N
atom 11.40801 -15.82946 -4.34939 C
atom 11.11131 -16.65992 -5.44749 C
atom 10.86217 -17.35739 -6.34857 N
atom 11.78466 -14.92142 -2.05818 N
atom 11.37018 -16.37728 -2.70389 S
atom -7.00003 8.89146 -2.48630 S
atom -6.82642 10.96562 -0.61112 C
atom -6.93411 8.40003 0.30120 C
atom -7.45220 10.02696 0.74904 S
atom -6.73788 7.94884 -1.03409 C
atom -6.64950 10.51999 -1.89340 C
atom -6.17214 11.38400 -2.91177 C
atom -6.53094 12.30838 -0.25961 C
atom -5.80227 12.06504 -3.78376 N
atom -6.32054 13.40787 0.06840 N
atom -6.35751 6.61130 -1.02532 C
atom -6.06082 5.78083 -2.12342 C
atom -5.81168 5.08337 -3.02450 N
atom -6.73417 7.51933 1.26589 N
atom -6.31969 6.06348 0.62018 S
atom -3.10096 6.06904 -5.81037 S
atom -3.27457 3.99488 -3.93519 C
atom -3.16687 6.56048 -3.02287 C
atom -2.64879 4.93355 -2.57503 S
atom -3.36311 7.01166 -4.35816 C
atom -3.45149 4.44051 -5.21747 C
atom -3.92884 3.57650 -6.23584 C
atom -3.57005 2.65213 -3.58368 C
atom -4.29872 2.89546 -7.10783 N
atom -3.78044 1.55263 -3.25567 N
atom -3.74347 8.34920 -4.34939 C
atom -4.04017 9.17967 -5.44749 C
atom -4.28931 9.87713 -6.34857 N
atom -3.36682 7.44117 -2.05818 N
atom -3.78130 8.89702 -2.70389 S
atom -1.94953 13.54929 -2.48630 S
atom -1.77592 11.47513 -0.61112 C
atom -1.88362 14.04073 0.30120 C
atom -2.40170 12.41380 0.74904 S
atom -1.68739 14.49192 -1.03409 C
atom -1.59900 11.92076 -1.89340 C
atom -1.12165 11.05676 -2.91177 C
atom -1.48044 10.13238 -0.25961 C
atom -0.75178 10.37572 -3.78376 N
atom -1.27005 9.03288 0.06840 N
atom -1.30702 15.82946 -1.02532 C
atom -1.01033 16.65992 -2.12342 C
atom -0.76119 17.35739 -3.02450 N
atom -1.68368 14.92142 1.26589 N
atom -1.26920 16.37728 0.62018 S
atom -8.15145 1.41121 -5.81037 S
atom -8.32506 3.48537 -3.93519 C
atom -8.21737 0.91978 -3.02287 C
atom -7.69929 2.54671 -2.57503 S
atom -8.41360 0.46859 -4.35816 C
atom -8.50198 3.03974 -5.21747 C
atom -8.97934 3.90375 -6.23584 C
atom -8.62054 4.82812 -3.58368 C
atom -9.34921 4.58479 -7.10783 N
atom -8.83094 5.92762 -3.25567 N
atom -8.79397 -0.86895 -4.34939 C
atom -9.09066 -1.69942 -5.44749 C
atom -9.33980 -2.39688 -6.34857 N
atom -8.41731 0.03908 -2.05818 N
atom -8.83179 -1.41677 -2.70389 S
atom 3.10096 8.89146 -2.48630 S
atom 3.27457 10.96562 -0.61112 C
atom 3.16687 8.40003 0.30120 C
atom 2.64879 10.02696 0.74904 S
atom 3.36311 7.94884 -1.03409 C
atom 3.45149 10.51999 -1.89340 C
atom 3.92884 11.38400 -2.91177 C
atom 3.57005 12.30838 -0.25961 C
atom 4.29872 12.06504 -3.78376 N
atom 3.78044 13.40787 0.06840 N
atom 3.74347 6.61130 -1.02532 C
atom 4.04017 5.78083 -2.12342 C
atom 4.28931 5.08337 -3.02450 N
atom 3.36682 7.51933 1.26589 N
atom 3.78130 6.06348 0.62018 S
atom 7.00003 6.06904 -5.81037 S
atom 6.82642 3.99488 -3.93519 C
atom 6.93411 6.56048 -3.02287 C
atom 7.45220 4.93355 -2.57503 S
atom 6.73788 7.01166 -4.35816 C
atom 6.64950 4.44051 -5.21747 C
atom 6.17214 3.57650 -6.23584 C
atom 6.53094 2.65213 -3.58368 C
atom 5.80227 2.89546 -7.10783 N
atom 6.32054 1.55263 -3.25567 N
atom 6.35751 8.34920 -4.34939 C
atom 6.06082 9.17967 -5.44749 C
atom 5.81168 9.87713 -6.34857 N
atom 6.73417 7.44117 -2.05818 N
atom 6.31969 8.89702 -2.70389 S
atom 8.15145 13.54929 -2.48630 S
atom 8.32506 11.47513 -0.61112 C
atom 8.21737 14.04073 0.30120 C
atom 7.69929 12.41380 0.74904 S
atom 8.41360 14.49192 -1.03409 C
atom 8.50198 11.92076 -1.89340 C
atom 8.97934 11.05676 -2.91177 C
atom 8.62054 10.13238 -0.25961 C
atom 9.34921 10.37572 -3.78376 N
atom 8.83094 9.03288 0.06840 N
atom 8.79397 15.82946 -1.02532 C
atom 9.09066 16.65992 -2.12342 C
atom 9.33980 17.35739 -3.02450 N
atom 8.41731 14.92142 1.26589 N
atom 8.83179 16.37728 0.62018 S
atom 1.94954 1.41121 -5.81037 S
atom 1.77592 3.48537 -3.93519 C
atom 1.88362 0.91978 -3.02287 C
atom 2.40170 2.54671 -2.57503 S
atom 1.68739 0.46859 -4.35816 C
atom 1.59900 3.03974 -5.21747 C
atom 1.12165 3.90375 -6.23584 C
atom 1.48044 4.82812 -3.58368 C
atom 0.75178 4.58479 -7.10783 N
atom 1.27005 5.92762 -3.25567 N
atom 1.30702 -0.86895 -4.34939 C
atom 1.01033 -1.69942 -5.44749 C
atom 0.76119 -2.39688 -6.34857 N
atom 1.68368 0.03908 -2.05818 N
atom 1.26920 -1.41677 -2.70389 S
atom 13.20195 8.89146 -2.48630 S
atom 13.37556 10.96562 -0.61112 C
atom 13.26786 8.40003 0.30120 C
atom 12.74978 10.02696 0.74904 S
atom 13.46409 7.94884 -1.03409 C
atom 13.55248 10.51999 -1.89340 C
atom 14.02983 11.38400 -2.91177 C
atom 13.67104 12.30838 -0.25961 C
atom 14.39970 12.06504 -3.78376 N
atom 13.88143 13.40787 0.06840 N
atom 13.84446 6.61130 -1.02532 C
atom 14.14115 5.78083 -2.12342 C
atom 14.39029 5.08337 -3.02450 N
atom 13.46780 7.51933 1.26589 N
atom 13.88228 6.06348 0.62018 S
atom 17.10102 6.06904 -5.81037 S
atom 16.92740 3.99488 -3.93519 C
atom 17.03510 6.56048 -3.02287 C
atom 17.55318 4.93355 -2.57503 S
atom 16.83887 7.01166 -4.35816 C
atom 16.75048 4.44051 -5.21747 C
atom 16.27313 3.57650 -6.23584 C
atom 16.63192 2.65213 -3.58368 C
atom 15.90326 2.89546 -7.10783 N
atom 16.42153 1.55263 -3.25567 N
atom 16.45850 8.34920 -4.34939 C
atom 16.16181 9.17967 -5.44749 C
atom 15.91267 9.87713 -6.34857 N
atom 16.83516 7.44117 -2.05818 N
atom 16.42068 8.89702 -2.70389 S
atom 18.25244 13.54929 -2.48630 S
atom 18.42605 11.47513 -0.61112 C
atom 18.31835 14.04073 0.30120 C
atom 17.80027 12.41380 0.74904 S
atom 18.51459 14.49192 -1.03409 C
atom 18.60297 11.92076 -1.89340 C
atom 19.08033 11.05676 -2.91177 C
atom 18.72153 10.13238 -0.25961 C
atom 19.45020 10.37572 -3.78376 N
atom 18.93192 9.03288 0.06840 N
atom 18.89495 15.82946 -1.02532 C
atom 19.19165 16.65992 -2.12342 C
atom 19.44079 17.35739 -3.02450 N
atom 18.51830 14.92142 1.26589 N
atom 18.93278 16.37728 0.62018 S
atom 12.05052 1.41121 -5.81037 S
atom 11.87691 3.48537 -3.93519 C
atom 11.98461 0.91978 -3.02287 C
atom 12.50269 2.54671 -2.57503 S
atom 11.78837 0.46859 -4.35816 C
atom 11.69999 3.03974 -5.21747 C
atom 11.22264 3.90375 -6.23584 C
atom 11.58143 4.82812 -3.58368 C
atom 10.85276 4.58479 -7.10783 N
atom 11.37104 5.92762 -3.25567 N
atom 11.40801 -0.86895 -4.34939 C
atom 11.11131 -1.69942 -5.44749 C
atom 10.86217 -2.39688 -6.34857 N
atom 11.78466 0.03908 -2.05818 N
atom 11.37018 -1.41677 -2.70389 S
atom -7.00003 23.85196 -2.48630 S
atom -6.82642 25.92612 -0.61112 C
atom -6.93411 23.36053 0.30120 C
atom -7.45220 24.98746 0.74904 S
atom -6.73788 22.90934 -1.03409 C
atom -6.64950 25.48049 -1.89340 C
atom -6.17214 26.34450 -2.91177 C
atom -6.53094 27.26888 -0.25961 C
atom -5.80227 27.02554 -3.78376 N
atom -6.32054 28.36838 0.06840 N
atom -6.35751 21.57180 -1.02532 C
atom -6.06082 20.74133 -2.12342 C
atom -5.81168 20.04387 -3.02450 N
atom -6.73417 22.47983 1.26589 N
atom -6.31969 21.02398 0.62018 S
atom -3.10096 21.02954 -5.81037 S
atom -3.27457 18.95539 -3.93519 C
atom -3.16687 21.52098 -3.02287 C
atom -2.64879 19.89405 -2.57503 S
atom -3.36311 21.97217 -4.35816 C
atom -3.45149 19.40102 -5.21747 C
atom -3.92884 18.53701 -6.23584 C
atom -3.57005 17.61263 -3.58368 C
atom -4.29872 17.85597 -7.10783 N
atom -3.78044 16.51313 -3.25567 N
atom -3.74347 23.30971 -4.34939 C
atom -4.04017 24.14017 -5.44749 C
atom -4.28931 24.83764 -6.34857 N
atom -3.36682 22.40168 -2.05818 N
atom -3.78130 23.85753 -2.70389 S
atom -1.94953 28.50979 -2.48630 S
atom -1.77592 26.43564 -0.61112 C
atom -1.88362 29.00123 0.30120 C
atom -2.40170 27.37430 0.74904 S
atom -1.68739 29.45242 -1.03409 C
atom -1.59900 26.88127 -1.89340 C
atom -1.12165 26.01726 -2.91177 C
atom -1.48044 25.09288 -0.25961 C
atom -0.75178 25.33622 -3.78376 N
atom -1.27005 23.99338 0.06840 N
atom -1.30702 30.78996 -1.02532 C
atom -1.01033 31.62043 -2.12342 C
atom -0.76119 32.31789 -3.02450 N
atom -1.68368 29.88193 1.26589 N
atom -1.26920 31.33778 0.62018 S
atom -8.15145 16.37171 -5.81037 S
atom -8.32506 18.44587 -3.93519 C
atom -8.21737 15.88028 -3.02287 C
atom -7.69929 17.50721 -2.57503 S
atom -8.41360 15.42909 -4.35816 C
atom -8.50198 18.00024 -5.21747 C
atom -8.97934 18.86425 -6.23584 C
atom -8.62054 19.78863 -3.58368 C
atom -9.34921 19.54529 -7.10783 N
atom -8.83094 20.88813 -3.25567 N
atom -8.79397 14.09155 -4.34939 C
atom -9.09066 13.26108 -5.44749 C
atom -9.33980 12.56362 -6.34857 N
atom -8.41731 14.99958 -2.05818 N
atom -8.83179 13.54373 -2.70389 S
atom 3.10096 23.85196 -2.48630 S
atom 3.27457 25.92612 -0.61112 C
atom 3.16687 23.36053 0.30120 C
atom 2.64879 24.98746 0.74904 S
atom 3.36311 22.90934 -1.03409 C
atom 3.45149 25.48049 -1.89340 C
atom 3.92884 26.34450 -2.91177 C
atom 3.57005 27.26888 -0.25961 C
atom 4.29872 27.02554 -3.78376 N
atom 3.78044 28.36838 0.06840 N
atom 3.74347 21.57180 -1.02532 C
atom 4.04017 20.74133 -2.12342 C
atom 4.28931 20.04387 -3.02450 N
atom 3.36682 22.47983 1.26589 N
atom 3.78130 21.02398 0.62018 S
atom 7.00003 21.02954 -5.81037 S
atom 6.82642 18.95539 -3.93519 C
atom 6.93411 21.52098 -3.02287 C
atom 7.45220 19.89405 -2.57503 S
atom 6.73788 21.97217 -4.35816 C
atom 6.64950 19.40102 -5.21747 C
atom 6.17214 18.53701 -6.23584 C
atom 6.53094 17.61263 -3.58368 C
atom 5.80227 17.85597 -7.10783 N
atom 6.32054 16.51313 -3.25567 N
atom 6.35751 23.30971 -4.34939 C
atom 6.06082 24.14017 -5.44749 C
atom 5.81168 24.83764 -6.34857 N
atom 6.73417 22.40168 -2.05818 N
atom 6.31969 23.85753 -2.70389 S
atom 8.15145 28.50979 -2.48630 S
atom 8.32506 26.43564 -0.61112 C
atom 8.21737 29.00123 0.30120 C
atom 7.69929 27.37430 0.74904 S
atom 8.41360 29.45242 -1.03409 C
atom 8.50198 26.88127 -1.89340 C
atom 8.97934 26.01726 -2.91177 C
atom 8.62054 25.09288 -0.25961 C
atom 9.34921 25.33622 -3.78376 N
atom 8.83094 23.99338 0.06840 N
atom 8.79397 30.78996 -1.02532 C
atom 9.09066 31.62043 -2.12342 C
atom 9.33980 32.31789 -3.02450 N
atom 8.41731 29.88193 1.26589 N
atom 8.83179 31.33778 0.62018 S
atom 1.94954 16.37171 -5.81037 S
atom 1.77592 18.44587 -3.93519 C
atom 1.88362 15.88028 -3.02287 C
atom 2.40170 17.50721 -2.57503 S
atom 1.68739 15.42909 -4.35816 C
atom 1.59900 18.00024 -5.21747 C
atom 1.12165 18.86425 -6.23584 C
atom 1.48044 19.78863 -3.58368 C
atom 0.75178 19.54529 -7.10783 N
atom 1.27005 20.88813 -3.25567 N
atom 1.30702 14.09155 -4.34939 C
atom 1.01033 13.26108 -5.44749 C
atom 0.76119 12.56362 -6.34857 N
atom 1.68368 14.99958 -2.05818 N
atom 1.26920 13.54373 -2.70389 S
atom 13.20195 23.85196 -2.48630 S
atom 13.37556 25.92612 -0.61112 C
atom 13.26786 23.36053 0.30120 C
atom 12.74978 24.98746 0.74904 S
atom 13.46409 22.90934 -1.03409 C
atom 13.55248 25.48049 -1.89340 C
atom 14.02983 26.34450 -2.91177 C
atom 13.67104 27.26888 -0.25961 C
atom 14.39970 27.02554 -3.78376 N
atom 13.88143 28.36838 0.06840 N
atom 13.84446 21.57180 -1.02532 C
atom 14.14115 20.74133 -2.12342 C
atom 14.39029 20.04387 -3.02450 N
atom 13.46780 22.47983 1.26589 N
atom 13.88228 21.02398 0.62018 S
atom 17.10102 21.02954 -5.81037 S
atom 16.92740 18.95539 -3.93519 C
atom 17.03510 21.52098 -3.02287 C
atom 17.55318 19.89405 -2.57503 S
atom 16.83887 21.97217 -4.35816 C
atom 16.75048 19.40102 -5.21747 C
atom 16.27313 18.53701 -6.23584 C
atom 16.63192 17.61263 -3.58368 C
atom 15.90326 17.85597 -7.10783 N
atom 16.42153 16.51313 -3.25567 N
atom 16.45850 23.30971 -4.34939 C
atom 16.16181 24.14017 -5.44749 C
atom 15.91267 24.83764 -6.34857 N
atom 16.83516 22.40168 -2.05818 N
atom 16.42068 23.85753 -2.70389 S
atom 18.25244 28.50979 -2.48630 S
atom 18.42605 26.43564 -0.61112 C
atom 18.31835 29.00123 0.30120 C
atom 17.80027 27.37430 0.74904 S
atom 18.51459 29.45242 -1.03409 C
atom 18.60297 26.88127 -1.89340 C
atom 19.08033 26.01726 -2.91177 C
atom 18.72153 25.09288 -0.25961 C
atom 19.45020 25.33622 -3.78376 N
atom 18.93192 23.99338 0.06840 N
atom 18.89495 30.78996 -1.02532 C
atom 19.19165 31.62043 -2.12342 C
atom 19.44079 32.31789 -3.02450 N
atom 18.51830 29.88193 1.26589 N
atom 18.93278 31.33778 0.62018 S
atom 12.05052 16.37171 -5.81037 S
atom 11.87691 18.44587 -3.93519 C
atom 11.98461 15.88028 -3.02287 C
atom 12.50269 17.50721 -2.57503 S
atom 11.78837 15.42909 -4.35816 C
atom 11.69999 18.00024 -5.21747 C
atom 11.22264 18.86425 -6.23584 C
atom 11.58143 19.78863 -3.58368 C
atom 10.85276 19.54529 -7.10783 N
atom 11.37104 20.88813 -3.25567 N
atom 11.40801 14.09155 -4.34939 C
atom 11.11131 13.26108 -5.44749 C
atom 10.86217 12.56362 -6.34857 N
atom 11.78466 14.99958 -2.05818 N
atom 11.37018 13.54373 -2.70389 S
atom -7.00003 -6.06904 4.16184 S
atom -6.82642 -3.99488 6.03701 C
atom -6.93411 -6.56048 6.94934 C
atom -7.45220 -4.93355 7.39717 S
atom -6.73788 -7.01166 5.61404 C
atom -6.64950 -4.44051 4.75474 C
atom -6.17214 -3.57650 3.73637 C
atom -6.53094 -2.65213 6.38853 C
atom -5.80227 -2.89546 2.86438 N
atom -6.32054 -1.55263 6.71654 N
atom -6.35751 -8.34920 5.62282 C
atom -6.06082 -9.17967 4.52472 C
atom -5.81168 -9.87713 3.62364 N
atom -6.73417 -7.44117 7.91402 N
atom -6.31969 -8.89702 7.26831 S
atom -3.10096 -8.89146 0.83777 S
atom -3.27457 -10.96562 2.71295 C
atom -3.16687 -8.40003 3.62527 C
atom -2.64879 -10.02696 4.07311 S
atom -3.36311 -7.94884 2.28998 C
atom -3.45149 -10.51999 1.43067 C
atom -3.92884 -11.38400 0.41230 C
atom -3.57005 -12.30838 3.06446 C
atom -4.29872 -12.06504 -0.45969 N
atom -3.78044 -13.40787 3.39247 N
atom -3.74347 -6.61130 2.29875 C
atom -4.04017 -5.78083 1.20065 C
atom -4.28931 -5.08337 0.29957 N
atom -3.36682 -7.51933 4.58996 N
atom -3.78130 -6.06348 3.94424 S
atom -1.94953 -1.41121 4.16184 S
atom -1.77592 -3.48537 6.03701 C
atom -1.88362 -0.91978 6.94934 C
atom -2.40170 -2.54671 7.39717 S
atom -1.68739 -0.46859 5.61404 C
atom -1.59900 -3.03974 4.75474 C
atom -1.12165 -3.90375 3.73637 C
atom -1.48044 -4.82812 6.38853 C
atom -0.75178 -4.58479 2.86438 N
atom -1.27005 -5.92762 6.71654 N
atom -1.30702 0.86895 5.62282 C
atom -1.01033 1.69942 4.52472 C
atom -0.76119 2.39688 3.62364 N
atom -1.68368 -0.03908 7.91402 N
atom -1.26920 1.41677 7.26831 S
atom -8.15145 -13.54929 0.83777 S
atom -8.32506 -11.47513 2.71295 C
atom -8.21737 -14.04073 3.62527 C
atom -7.69929 -12.41380 4.07311 S
atom -8.41360 -14.49192 2.28998 C
atom -8.50198 -11.92077 1.43067 C
atom -8.97934 -11.05676 0.41230 C
atom -8.62054 -10.13238 3.06446 C
atom -9.34921 -10.37572 -0.45969 N
atom -8.83094 -9.03288 3.39247 N
atom -8.79397 -15.82946 2.29875 C
atom -9.09066 -16.65992 1.20065 C
atom -9.33980 -17.35739 0.29957 N
atom -8.41731 -14.92142 4.58996 N
atom -8.83179 -16.37728 3.94424 S
atom 3.10096 -6.06904 4.16184 S
atom 3.27457 -3.99488 6.03701 C
atom 3.16687 -6.56048 6.94934 C
atom 2.64879 -4.93355 7.39717 S
atom 3.36311 -7.01166 5.61404 C
atom 3.45149 -4.44051 4.75474 C
atom 3.92884 -3.57650 3.73637 C
atom 3.57005 -2.65213 6.38853 C
atom 4.29872 -2.89546 2.86438 N
atom 3.78044 -1.55263 6.71654 N
atom 3.74347 -8.34920 5.62282 C
atom 4.04017 -9.17967 4.52472 C
atom 4.28931 -9.87713 3.62364 N
atom 3.36682 -7.44117 7.91402 N
atom 3.78130 -8.89702 7.26831 S
atom 7.00003 -8.89146 0.83777 S
atom 6.82642 -10.96562 2.71295 C
atom 6.93411 -8.40003 3.62527 C
atom 7.45220 -10.02696 4.07311 S
atom 6.73788 -7.94884 2.28998 C
atom 6.64950 -10.51999 1.43067 C
atom 6.17214 -11.38400 0.41230 C
atom 6.53094 -12.30838 3.06446 C
atom 5.80227 -12.06504 -0.45969 N
atom 6.32054 -13.40787 3.39247 N
atom 6.35751 -6.61130 2.29875 C
atom 6.06082 -5.78083 1.20065 C
atom 5.81168 -5.08337 0.29957 N
atom 6.73417 -7.51933 4.58996 N
atom 6.31969 -6.06348 3.94424 S
atom 8.15145 -1.41121 4.16184 S
atom 8.32506 -3.48537 6.03701 C
atom 8.21737 -0.91978 6.94934 C
atom 7.69929 -2.54671 7.39717 S
atom 8.41360 -0.46859 5.61404 C
atom 8.50198 -3.03974 4.75474 C
atom 8.97934 -3.90375 3.73637 C
atom 8.62054 -4.82812 6.38853 C
atom 9.34921 -4.58479 2.86438 N
atom 8.83094 -5.92762 6.71654 N
atom 8.79397 0.86895 5.62282 C
atom 9.09066 1.69942 4.52472 C
atom 9.33980 2.39688 3.62364 N
atom 8.41731 -0.03908 7.91402 N
atom 8.83179 1.41677 7.26831 S
atom 1.94954 -13.54929 0.83777 S
atom 1.77592 -11.47513 2.71295 C
atom 1.88362 -14.04073 3.62527 C
atom 2.40170 -12.41380 4.07311 S
atom 1.68739 -14.49192 2.28998 C
atom 1.59900 -11.92077 1.43067 C
atom 1.12165 -11.05676 0.41230 C
atom 1.48044 -10.13238 3.06446 C
atom 0.75178 -10.37572 -0.45969 N
atom 1.27005 -9.03288 3.39247 N
atom 1.30702 -15.82946 2.29875 C
atom 1.01033 -16.65992 1.20065 C
atom 0.76119 -17.35739 0.29957 N
atom 1.68368 -14.92142 4.58996 N
atom 1.26920 -16.37728 3.94424 S
atom 13.20195 -6.06904 4.16184 S
atom 13.37556 -3.99488 6.03701 C
atom 13.26786 -6.56048 6.94934 C
atom 12.74978 -4.93355 7.39717 S
atom 13.46409 -7.01166 5.61404 C
atom 13.55248 -4.44051 4.75474 C
atom 14.02983 -3.57650 3.73637 C
atom 13.67104 -2.65213 6.38853 C
atom 14.39970 -2.89546 2.86438 N
atom 13.88143 -1.55263 6.71654 N
atom 13.84446 -8.34920 5.62282 C
atom 14.14115 -9.17967 4.52472 C
atom 14.39029 -9.87713 3.62364 N
atom 13.46780 -7.44117 7.91402 N
atom 13.88228 -8.89702 7.26831 S
atom 17.10102 -8.89146 0.83777 S
atom 16.92740 -10.96562 2.71295 C
atom 17.03510 -8.40003 3.62527 C
atom 17.55318 -10.02696 4.07311 S
atom 16.83887 -7.94884 2.28998 C
atom 16.75048 -10.51999 1.43067 C
atom 16.27313 -11.38400 0.41230 C
atom 16.63192 -12.30838 3.06446 C
atom 15.90326 -12.06504 -0.45969 N
atom 16.42153 -13.40787 3.39247 N
atom 16.45850 -6.61130 2.29875 C
atom 16.16181 -5.78083 1.20065 C
atom 15.91267 -5.08337 0.29957 N
atom 16.83516 -7.51933 4.58996 N
atom 16.42068 -6.06348 3.94424 S
atom 18.25244 -1.41121 4.16184 S
atom 18.42605 -3.48537 6.03701 C
atom 18.31835 -0.91978 6.94934 C
atom 17.80027 -2.54671 7.39717 S
atom 18.51459 -0.46859 5.61404 C
atom 18.60297 -3.03974 4.75474 C
atom 19.08033 -3.90375 3.73637 C
atom 18.72153 -4.82812 6.38853 C
atom 19.45020 -4.58479 2.86438 N
atom 18.93192 -5.92762 6.71654 N
atom 18.89495 0.86895 5.62282 C
atom 19.19165 1.69942 4.52472 C
atom 19.44079 2.39688 3.62364 N
atom 18.51830 -0.03908 7.91402 N
atom 18.93278 1.41677 7.26831 S
atom 12.05052 -13.54929 0.83777 S
atom 11.87691 -11.47513 2.71295 C
atom 11.98461 -14.04073 3.62527 C
atom 12.50269 -12.41380 4.07311 S
atom 11.78837 -14.49192 2.28998 C
atom 11.69999 -11.92077 1.43067 C
atom 11.22264 -11.05676 0.41230 C
atom 11.58143 -10.13238 3.06446 C
atom 10.85276 -10.37572 -0.45969 N
atom 11.37104 -9.03288 3.39247 N
atom 11.40801 -15.82946 2.29875 C
atom 11.11131 -16.65992 1.20065 C
atom 10.86217 -17.35739 0.29957 N
atom 11.78466 -14.92142 4.58996 N
atom 11.37018 -16.37728 3.94424 S
atom -7.00003 8.89146 4.16184 S
atom -6.82642 10.96562 6.03701 C
atom -6.93411 8.40003 6.94934 C
atom -7.45220 10.02696 7.39717 S
atom -6.73788 7.94884 5.61404 C
atom -6.64950 10.51999 4.75474 C
atom -6.17214 11.38400 3.73637 C
atom -6.53094 12.30838 6.38853 C
atom -5.80227 12.06504 2.86438 N
atom -6.32054 13.40787 6.71654 N
atom -6.35751 6.61130 5.62282 C
atom -6.06082 5.78083 4.52472 C
atom -5.81168 5.08337 3.62364 N
atom -6.73417 7.51933 7.91402 N
atom -6.31969 6.06348 7.26831 S
atom -3.10096 6.06904 0.83777 S
atom -3.27457 3.99488 2.71295 C
atom -3.16687 6.56048 3.62527 C
atom -2.64879 4.93355 4.07311 S
atom -3.36311 7.01166 2.28998 C
atom -3.45149 4.44051 1.43067 C
atom -3.92884 3.57650 0.41230 C
atom -3.57005 2.65213 3.06446 C
atom -4.29872 2.89546 -0.45969 N
atom -3.78044 1.55263 3.39247 N
atom -3.74347 8.34920 2.29875 C
atom -4.04017 9.17967 1.20065 C
atom -4.28931 9.87713 0.29957 N
atom -3.36682 7.44117 4.58996 N
atom -3.78130 8.89702 3.94424 S
atom -1.94953 13.54929 4.16184 S
atom -1.77592 11.47513 6.03701 C
atom -1.88362 14.04073 6.94934 C
atom -2.40170 12.41380 7.39717 S
atom -1.68739 14.49192 5.61404 C
atom -1.59900 11.92076 4.75474 C
atom -1.12165 11.05676 3.73637 C
atom -1.48044 10.13238 6.38853 C
atom -0.75178 10.37572 2.86438 N
atom -1.27005 9.03288 6.71654 N
atom -1.30702 15.82946 5.62282 C
atom -1.01033 16.65992 4.52472 C
atom -0.76119 17.35739 3.62364 N
atom -1.68368 14.92142 7.91402 N
atom -1.26920 16.37728 7.26831 S
atom -8.15145 1.41121 0.83777 S
atom -8.32506 3.48537 2.71295 C
atom -8.21737 0.91978 3.62527 C
atom -7.69929 2.54671 4.07311 S
atom -8.41360 0.46859 2.28998 C
atom -8.50198 3.03974 1.43067 C
atom -8.97934 3.90375 0.41230 C
atom -8.62054 4.82812 3.06446 C
atom -9.34921 4.58479 -0.45969 N
atom -8.83094 5.92762 3.39247 N
atom -8.79397 -0.86895 2.29875 C
atom -9.09066 -1.69942 1.20065 C
atom -9.33980 -2.39688 0.29957 N
atom -8.41731 0.03908 4.58996 N
atom -8.83179 -1.41677 3.94424 S
atom 13.20195 8.89146 4.16184 S
atom 13.37556 10.96562 6.03701 C
atom 13.26786 8.40003 6.94934 C
atom 12.74978 10.02696 7.39717 S
atom 13.46409 7.94884 5.61404 C
atom 13.55248 10.51999 4.75474 C
atom 14.02983 11.38400 3.73637 C
atom 13.67104 12.30838 6.38853 C
atom 14.39970 12.06504 2.86438 N
atom 13.88143 13.40787 6.71654 N
atom 13.84446 6.61130 5.62282 C
atom 14.14115 5.78083 4.52472 C
atom 14.39029 5.08337 3.62364 N
atom 13.46780 7.51933 7.91402 N
atom 13.88228 6.06348 7.26831 S
atom 17.10102 6.06904 0.83777 S
atom 16.92740 3.99488 2.71295 C
atom 17.03510 6.56048 3.62527 C
atom 17.55318 4.93355 4.07311 S
atom 16.83887 7.01166 2.28998 C
atom 16.75048 4.44051 1.43067 C
atom 16.27313 3.57650 0.41230 C
atom 16.63192 2.65213 3.06446 C
atom 15.90326 2.89546 -0.45969 N
atom 16.42153 1.55263 3.39247 N
atom 16.45850 8.34920 2.29875 C
atom 16.16181 9.17967 1.20065 C
atom 15.91267 9.87713 0.29957 N
atom 16.83516 7.44117 4.58996 N
atom 16.42068 8.89702 3.94424 S
atom 18.25244 13.54929 4.16184 S
atom 18.42605 11.47513 6.03701 C
atom 18.31835 14.04073 6.94934 C
atom 17.80027 12.41380 7.39717 S
atom 18.51459 14.49192 5.61404 C
atom 18.60297 11.92076 4.75474 C
atom 19.08033 11.05676 3.73637 C
atom 18.72153 10.13238 6.38853 C
atom 19.45020 10.37572 2.86438 N
atom 18.93192 9.03288 6.71654 N
atom 18.89495 15.82946 5.62282 C
atom 19.19165 16.65992 4.52472 C
atom 19.44079 17.35739 3.62364 N
atom 18.51830 14.92142 7.91402 N
atom 18.93278 16.37728 7.26831 S
atom 12.05052 1.41121 0.83777 S
atom 11.87691 3.48537 2.71295 C
atom 11.98461 0.91978 3.62527 C
atom 12.50269 2.54671 4.07311 S
atom 11.78837 0.46859 2.28998 C
atom 11.69999 3.03974 1.43067 C
atom 11.22264 3.90375 0.41230 C
atom 11.58143 4.82812 3.06446 C
atom 10.85276 4.58479 -0.45969 N
atom 11.37104 5.92762 3.39247 N
atom 11.40801 -0.86895 2.29875 C
atom 11.11131 -1.69942 1.20065 C
atom 10.86217 -2.39688 0.29957 N
atom 11.78466 0.03908 4.58996 N
atom 11.37018 -1.41677 3.94424 S
atom -7.00003 23.85196 4.16184 S
atom -6.82642 25.92612 6.03701 C
atom -6.93411 23.36053 6.94934 C