lattice_vector 7.32634831843 0 0
lattice_vector 7.46108587091e-16 12.1848779193 0
lattice_vector -2.27302979548 1.54056174722e-15 12.2459204818
atom 6.06997 6.70030 3.41366 S
atom 5.80996 8.84695 5.19489 C
atom 5.22175 6.34149 6.09093 C
atom 4.71858 8.01904 6.31122 S
atom 5.78997 5.81398 4.89764 C
atom 6.34374 8.32883 4.04565 C
atom 7.18184 9.10879 3.20857 C
atom 6.08477 10.18262 5.58775 C
atom 7.85808 9.72064 2.48102 N
atom 6.26735 11.28036 5.93758 N
atom 6.04257 4.45615 5.05971 C
atom 6.60198 3.55549 4.13268 C
atom 7.06514 2.80010 3.37416 N
atom 5.04025 5.49735 7.09128 N
atom 5.52066 3.98757 6.64629 S
atom 1.27028 5.48458 9.53662 S
atom 1.01027 3.33792 11.31785 C
atom 0.42206 5.84338 12.21389 C
atom -0.08111 4.16584 12.43418 S
atom 0.99028 6.37090 11.02060 C
atom 1.54405 3.85605 10.16862 C
atom 2.38215 3.07609 9.33153 C
atom 1.28508 2.00226 11.71071 C
atom 3.05839 2.46424 8.60398 N
atom 1.46766 0.90452 12.06054 N
atom 1.24288 7.72873 11.18267 C
atom 1.80229 8.62939 10.25564 C
atom 2.26545 9.38477 9.49712 N
atom 0.24056 6.68753 13.21424 N
atom 0.72097 8.19731 12.76925 S
atom 2.40680 0.60786 3.41366 S
atom 2.14678 2.75451 5.19489 C
atom 1.55858 0.24905 6.09093 C
atom 1.05541 1.92660 6.31122 S
atom 2.12679 -0.27846 4.89764 C
atom 2.68056 2.23639 4.04565 C
atom 3.51866 3.01635 3.20857 C
atom 2.42159 4.09018 5.58775 C
atom 4.19490 3.62820 2.48102 N
atom 2.60418 5.18792 5.93758 N
atom 2.37940 -1.63629 5.05971 C
atom 2.93880 -2.53695 4.13268 C
atom 3.40196 -3.29234 3.37416 N
atom 1.37708 -0.59509 7.09128 N
atom 1.85748 -2.10487 6.64629 S
atom 4.93346 11.57702 9.53662 S
atom 4.67344 9.43036 11.31785 C
atom 4.08524 11.93582 12.21389 C
atom 3.58207 10.25828 12.43418 S
atom 4.65345 12.46334 11.02060 C
atom 5.20722 9.94849 10.16862 C
atom 6.04532 9.16852 9.33153 C
atom 4.94825 8.09470 11.71071 C
atom 6.72156 8.55667 8.60398 N
atom 5.13084 6.99696 12.06054 N
atom 4.90605 13.82117 11.18267 C
atom 5.46546 14.72183 10.25564 C
atom 5.92862 15.47721 9.49712 N
atom 3.90374 12.77997 13.21424 N
atom 4.38414 14.28975 12.76925 S
atom 1.01665 -5.48458 -8.83226 S
atom 0.75664 -3.33792 -7.05103 C
atom 0.16843 -5.84338 -6.15499 C
atom -0.33473 -4.16584 -5.93470 S
atom 0.73665 -6.37090 -7.34828 C
atom 1.29042 -3.85605 -8.20027 C
atom 2.12852 -3.07609 -9.03735 C
atom 1.03145 -2.00226 -6.65817 C
atom 2.80476 -2.46424 -9.76490 N
atom 1.21403 -0.90452 -6.30834 N
atom 0.98925 -7.72873 -7.18621 C
atom 1.54866 -8.62939 -8.11325 C
atom 2.01182 -9.38477 -8.87176 N
atom -0.01307 -6.68753 -5.15464 N
atom 0.46734 -8.19731 -5.59963 S
atom -3.78304 -6.70030 -2.70930 S
atom -4.04305 -8.84695 -0.92807 C
atom -4.63125 -6.34149 -0.03203 C
atom -5.13442 -8.01904 0.18826 S
atom -4.06304 -5.81398 -1.22532 C
atom -3.50927 -8.32883 -2.07731 C
atom -2.67117 -9.10879 -2.91439 C
atom -3.76824 -10.18262 -0.53521 C
atom -1.99493 -9.72064 -3.64194 N
atom -3.58565 -11.28036 -0.18538 N
atom -3.81044 -4.45615 -1.06325 C
atom -3.25103 -3.55549 -1.99028 C
atom -2.78787 -2.80010 -2.74880 N
atom -4.81276 -5.49735 0.96832 N
atom -4.33235 -3.98757 0.52333 S
atom -2.64652 -11.57702 -8.83226 S
atom -2.90653 -9.43036 -7.05103 C
atom -3.49474 -11.93582 -6.15499 C
atom -3.99791 -10.25828 -5.93470 S
atom -2.92652 -12.46334 -7.34828 C
atom -2.37275 -9.94849 -8.20027 C
atom -1.53466 -9.16852 -9.03735 C
atom -2.63173 -8.09470 -6.65817 C
atom -0.85842 -8.55667 -9.76490 N
atom -2.44914 -6.99696 -6.30834 N
atom -2.67392 -13.82117 -7.18621 C
atom -2.11452 -14.72183 -8.11325 C
atom -1.65135 -15.47721 -8.87176 N
atom -3.67624 -12.77997 -5.15464 N
atom -3.19584 -14.28975 -5.59963 S
atom -0.11986 -0.60786 -2.70930 S
atom -0.37988 -2.75451 -0.92807 C
atom -0.96808 -0.24905 -0.03203 C
atom -1.47125 -1.92660 0.18826 S
atom -0.39986 0.27846 -1.22532 C
atom 0.15391 -2.23639 -2.07731 C
atom 0.99200 -3.01635 -2.91439 C
atom -0.10507 -4.09018 -0.53521 C
atom 1.66824 -3.62820 -3.64194 N
atom 0.07752 -5.18792 -0.18538 N
atom -0.14726 1.63629 -1.06325 C
atom 0.41214 2.53695 -1.99028 C
atom 0.87531 3.29234 -2.74880 N
atom -1.14958 0.59509 0.96832 N
atom -0.66918 2.10487 0.52333 S
atom 8.34300 -5.48458 -8.83226 S
atom 8.08299 -3.33792 -7.05103 C
atom 7.49478 -5.84338 -6.15499 C
atom 6.99161 -4.16584 -5.93470 S
atom 8.06300 -6.37090 -7.34828 C
atom 8.61677 -3.85605 -8.20027 C
atom 9.45487 -3.07609 -9.03735 C
atom 8.35780 -2.00226 -6.65817 C
atom 10.13111 -2.46424 -9.76490 N
atom 8.54038 -0.90452 -6.30834 N
atom 8.31560 -7.72873 -7.18621 C
atom 8.87501 -8.62939 -8.11325 C
atom 9.33817 -9.38477 -8.87176 N
atom 7.31328 -6.68753 -5.15464 N
atom 7.79369 -8.19731 -5.59963 S
atom 3.54331 -6.70030 -2.70930 S
atom 3.28330 -8.84695 -0.92807 C
atom 2.69509 -6.34149 -0.03203 C
atom 2.19192 -8.01904 0.18826 S
atom 3.26331 -5.81398 -1.22532 C
atom 3.81708 -8.32883 -2.07731 C
atom 4.65518 -9.10879 -2.91439 C
atom 3.55811 -10.18262 -0.53521 C
atom 5.33142 -9.72064 -3.64194 N
atom 3.74069 -11.28036 -0.18538 N
atom 3.51591 -4.45615 -1.06325 C
atom 4.07532 -3.55549 -1.99028 C
atom 4.53848 -2.80010 -2.74880 N
atom 2.51359 -5.49735 0.96832 N
atom 2.99400 -3.98757 0.52333 S
atom 4.67983 -11.57702 -8.83226 S
atom 4.41981 -9.43036 -7.05103 C
atom 3.83161 -11.93582 -6.15499 C
atom 3.32844 -10.25828 -5.93470 S
atom 4.39982 -12.46334 -7.34828 C
atom 4.95359 -9.94849 -8.20027 C
atom 5.79169 -9.16852 -9.03735 C
atom 4.69462 -8.09470 -6.65817 C
atom 6.46793 -8.55667 -9.76490 N
atom 4.87721 -6.99696 -6.30834 N
atom 4.65243 -13.82117 -7.18621 C
atom 5.21183 -14.72183 -8.11325 C
atom 5.67499 -15.47721 -8.87176 N
atom 3.65011 -12.77997 -5.15464 N
atom 4.13051 -14.28975 -5.59963 S
atom 7.20649 -0.60786 -2.70930 S
atom 6.94647 -2.75451 -0.92807 C
atom 6.35827 -0.24905 -0.03203 C
atom 5.85510 -1.92660 0.18826 S
atom 6.92648 0.27846 -1.22532 C
atom 7.48025 -2.23639 -2.07731 C
atom 8.31835 -3.01635 -2.91439 C
atom 7.22128 -4.09018 -0.53521 C
atom 8.99459 -3.62820 -3.64194 N
atom 7.40387 -5.18792 -0.18538 N
atom 7.17908 1.63629 -1.06325 C
atom 7.73849 2.53695 -1.99028 C
atom 8.20165 3.29234 -2.74880 N
atom 6.17676 0.59509 0.96832 N
atom 6.65717 2.10487 0.52333 S
atom 15.66935 -5.48458 -8.83226 S
atom 15.40934 -3.33792 -7.05103 C
atom 14.82113 -5.84338 -6.15499 C
atom 14.31796 -4.16584 -5.93470 S
atom 15.38935 -6.37090 -7.34828 C
atom 15.94312 -3.85605 -8.20027 C
atom 16.78122 -3.07609 -9.03735 C
atom 15.68415 -2.00226 -6.65817 C
atom 17.45745 -2.46424 -9.76490 N
atom 15.86673 -0.90452 -6.30834 N
atom 15.64195 -7.72873 -7.18621 C
atom 16.20135 -8.62939 -8.11325 C
atom 16.66452 -9.38477 -8.87176 N
atom 14.63963 -6.68753 -5.15464 N
atom 15.12003 -8.19731 -5.59963 S
atom 10.86966 -6.70030 -2.70930 S
atom 10.60965 -8.84695 -0.92807 C
atom 10.02144 -6.34149 -0.03203 C
atom 9.51827 -8.01904 0.18826 S
atom 10.58966 -5.81398 -1.22532 C
atom 11.14343 -8.32883 -2.07731 C
atom 11.98153 -9.10879 -2.91439 C
atom 10.88446 -10.18262 -0.53521 C
atom 12.65777 -9.72064 -3.64194 N
atom 11.06704 -11.28036 -0.18538 N
atom 10.84226 -4.45615 -1.06325 C
atom 11.40167 -3.55549 -1.99028 C
atom 11.86483 -2.80010 -2.74880 N
atom 9.83994 -5.49735 0.96832 N
atom 10.32034 -3.98757 0.52333 S
atom 12.00618 -11.57702 -8.83226 S
atom 11.74616 -9.43036 -7.05103 C
atom 11.15796 -11.93582 -6.15499 C
atom 10.65479 -10.25828 -5.93470 S
atom 11.72617 -12.46334 -7.34828 C
atom 12.27994 -9.94849 -8.20027 C
atom 13.11804 -9.16852 -9.03735 C
atom 12.02097 -8.09470 -6.65817 C
atom 13.79428 -8.55667 -9.76490 N
atom 12.20356 -6.99696 -6.30834 N
atom 11.97877 -13.82117 -7.18621 C
atom 12.53818 -14.72183 -8.11325 C
atom 13.00134 -15.47721 -8.87176 N
atom 10.97645 -12.77997 -5.15464 N
atom 11.45686 -14.28975 -5.59963 S
atom 14.53284 -0.60786 -2.70930 S
atom 14.27282 -2.75451 -0.92807 C
atom 13.68462 -0.24905 -0.03203 C
atom 13.18145 -1.92660 0.18826 S
atom 14.25283 0.27846 -1.22532 C
atom 14.80660 -2.23639 -2.07731 C
atom 15.64470 -3.01635 -2.91439 C
atom 14.54763 -4.09018 -0.53521 C
atom 16.32094 -3.62820 -3.64194 N
atom 14.73022 -5.18792 -0.18538 N
atom 14.50543 1.63629 -1.06325 C
atom 15.06484 2.53695 -1.99028 C
atom 15.52800 3.29234 -2.74880 N
atom 13.50311 0.59509 0.96832 N
atom 13.98352 2.10487 0.52333 S
atom 1.01665 6.70030 -8.83226 S
atom 0.75664 8.84695 -7.05103 C
atom 0.16843 6.34149 -6.15499 C
atom -0.33473 8.01904 -5.93470 S
atom 0.73665 5.81398 -7.34828 C
atom 1.29042 8.32883 -8.20027 C
atom 2.12852 9.10879 -9.03735 C
atom 1.03145 10.18262 -6.65817 C
atom 2.80476 9.72064 -9.76490 N
atom 1.21403 11.28036 -6.30834 N
atom 0.98925 4.45615 -7.18621 C
atom 1.54866 3.55549 -8.11325 C
atom 2.01182 2.80010 -8.87176 N
atom -0.01307 5.49735 -5.15464 N
atom 0.46734 3.98757 -5.59963 S
atom -3.78304 5.48458 -2.70930 S
atom -4.04305 3.33792 -0.92807 C
atom -4.63125 5.84338 -0.03203 C
atom -5.13442 4.16584 0.18826 S
atom -4.06304 6.37090 -1.22532 C
atom -3.50927 3.85605 -2.07731 C
atom -2.67117 3.07609 -2.91439 C
atom -3.76824 2.00226 -0.53521 C
atom -1.99493 2.46424 -3.64194 N
atom -3.58565 0.90452 -0.18538 N
atom -3.81044 7.72873 -1.06325 C
atom -3.25103 8.62939 -1.99028 C
atom -2.78787 9.38477 -2.74880 N
atom -4.81276 6.68753 0.96832 N
atom -4.33235 8.19731 0.52333 S
atom -2.64652 0.60786 -8.83226 S
atom -2.90653 2.75451 -7.05103 C
atom -3.49474 0.24905 -6.15499 C
atom -3.99791 1.92660 -5.93470 S
atom -2.92652 -0.27846 -7.34828 C
atom -2.37275 2.23639 -8.20027 C
atom -1.53466 3.01635 -9.03735 C
atom -2.63173 4.09018 -6.65817 C
atom -0.85842 3.62820 -9.76490 N
atom -2.44914 5.18792 -6.30834 N
atom -2.67392 -1.63629 -7.18621 C
atom -2.11452 -2.53695 -8.11325 C
atom -1.65135 -3.29234 -8.87176 N
atom -3.67624 -0.59509 -5.15464 N
atom -3.19584 -2.10487 -5.59963 S
atom -0.11986 11.57702 -2.70930 S
atom -0.37988 9.43036 -0.92807 C
atom -0.96808 11.93582 -0.03203 C
atom -1.47125 10.25828 0.18826 S
atom -0.39986 12.46334 -1.22532 C
atom 0.15391 9.94849 -2.07731 C
atom 0.99200 9.16852 -2.91439 C
atom -0.10507 8.09470 -0.53521 C
atom 1.66824 8.55667 -3.64194 N
atom 0.07752 6.99696 -0.18538 N
atom -0.14726 13.82117 -1.06325 C
atom 0.41214 14.72183 -1.99028 C
atom 0.87531 15.47721 -2.74880 N
atom -1.14958 12.77997 0.96832 N
atom -0.66918 14.28975 0.52333 S
atom 8.34300 6.70030 -8.83226 S
atom 8.08299 8.84695 -7.05103 C
atom 7.49478 6.34149 -6.15499 C
atom 6.99161 8.01904 -5.93470 S
atom 8.06300 5.81398 -7.34828 C
atom 8.61677 8.32883 -8.20027 C
atom 9.45487 9.10879 -9.03735 C
atom 8.35780 10.18262 -6.65817 C
atom 10.13111 9.72064 -9.76490 N
atom 8.54038 11.28036 -6.30834 N
atom 8.31560 4.45615 -7.18621 C
atom 8.87501 3.55549 -8.11325 C
atom 9.33817 2.80010 -8.87176 N
atom 7.31328 5.49735 -5.15464 N
atom 7.79369 3.98757 -5.59963 S
atom 3.54331 5.48458 -2.70930 S
atom 3.28330 3.33792 -0.92807 C
atom 2.69509 5.84338 -0.03203 C
atom 2.19192 4.16584 0.18826 S
atom 3.26331 6.37090 -1.22532 C
atom 3.81708 3.85605 -2.07731 C
atom 4.65518 3.07609 -2.91439 C
atom 3.55811 2.00226 -0.53521 C
atom 5.33142 2.46424 -3.64194 N
atom 3.74069 0.90452 -0.18538 N
atom 3.51591 7.72873 -1.06325 C
atom 4.07532 8.62939 -1.99028 C
atom 4.53848 9.38477 -2.74880 N
atom 2.51359 6.68753 0.96832 N
atom 2.99400 8.19731 0.52333 S
atom 4.67983 0.60786 -8.83226 S
atom 4.41981 2.75451 -7.05103 C
atom 3.83161 0.24905 -6.15499 C
atom 3.32844 1.92660 -5.93470 S
atom 4.39982 -0.27846 -7.34828 C
atom 4.95359 2.23639 -8.20027 C
atom 5.79169 3.01635 -9.03735 C
atom 4.69462 4.09018 -6.65817 C
atom 6.46793 3.62820 -9.76490 N
atom 4.87721 5.18792 -6.30834 N
atom 4.65243 -1.63629 -7.18621 C
atom 5.21183 -2.53695 -8.11325 C
atom 5.67499 -3.29234 -8.87176 N
atom 3.65011 -0.59509 -5.15464 N
atom 4.13051 -2.10487 -5.59963 S
atom 7.20649 11.57702 -2.70930 S
atom 6.94647 9.43036 -0.92807 C
atom 6.35827 11.93582 -0.03203 C
atom 5.85510 10.25828 0.18826 S
atom 6.92648 12.46334 -1.22532 C
atom 7.48025 9.94849 -2.07731 C
atom 8.31835 9.16852 -2.91439 C
atom 7.22128 8.09470 -0.53521 C
atom 8.99459 8.55667 -3.64194 N
atom 7.40387 6.99696 -0.18538 N
atom 7.17908 13.82117 -1.06325 C
atom 7.73849 14.72183 -1.99028 C
atom 8.20165 15.47721 -2.74880 N
atom 6.17676 12.77997 0.96832 N
atom 6.65717 14.28975 0.52333 S
atom 15.66935 6.70030 -8.83226 S
atom 15.40934 8.84695 -7.05103 C
atom 14.82113 6.34149 -6.15499 C
atom 14.31796 8.01904 -5.93470 S
atom 15.38935 5.81398 -7.34828 C
atom 15.94312 8.32883 -8.20027 C
atom 16.78122 9.10879 -9.03735 C
atom 15.68415 10.18262 -6.65817 C
atom 17.45745 9.72064 -9.76490 N
atom 15.86673 11.28036 -6.30834 N
atom 15.64195 4.45615 -7.18621 C
atom 16.20135 3.55549 -8.11325 C
atom 16.66452 2.80010 -8.87176 N
atom 14.63963 5.49735 -5.15464 N
atom 15.12003 3.98757 -5.59963 S
atom 10.86966 5.48458 -2.70930 S
atom 10.60965 3.33792 -0.92807 C
atom 10.02144 5.84338 -0.03203 C
atom 9.51827 4.16584 0.18826 S
atom 10.58966 6.37090 -1.22532 C
atom 11.14343 3.85605 -2.07731 C
atom 11.98153 3.07609 -2.91439 C
atom 10.88446 2.00226 -0.53521 C
atom 12.65777 2.46424 -3.64194 N
atom 11.06704 0.90452 -0.18538 N
atom 10.84226 7.72873 -1.06325 C
atom 11.40167 8.62939 -1.99028 C
atom 11.86483 9.38477 -2.74880 N
atom 9.83994 6.68753 0.96832 N
atom 10.32034 8.19731 0.52333 S
atom 12.00618 0.60786 -8.83226 S
atom 11.74616 2.75451 -7.05103 C
atom 11.15796 0.24905 -6.15499 C
atom 10.65479 1.92660 -5.93470 S
atom 11.72617 -0.27846 -7.34828 C
atom 12.27994 2.23639 -8.20027 C
atom 13.11804 3.01635 -9.03735 C
atom 12.02097 4.09018 -6.65817 C
atom 13.79428 3.62820 -9.76490 N
atom 12.20356 5.18792 -6.30834 N
atom 11.97877 -1.63629 -7.18621 C
atom 12.53818 -2.53695 -8.11325 C
atom 13.00134 -3.29234 -8.87176 N
atom 10.97645 -0.59509 -5.15464 N
atom 11.45686 -2.10487 -5.59963 S
atom 14.53284 11.57702 -2.70930 S
atom 14.27282 9.43036 -0.92807 C
atom 13.68462 11.93582 -0.03203 C
atom 13.18145 10.25828 0.18826 S
atom 14.25283 12.46334 -1.22532 C
atom 14.80660 9.94849 -2.07731 C
atom 15.64470 9.16852 -2.91439 C
atom 14.54763 8.09470 -0.53521 C
atom 16.32094 8.55667 -3.64194 N
atom 14.73022 6.99696 -0.18538 N
atom 14.50543 13.82117 -1.06325 C
atom 15.06484 14.72183 -1.99028 C
atom 15.52800 15.47721 -2.74880 N
atom 13.50311 12.77997 0.96832 N
atom 13.98352 14.28975 0.52333 S
atom 1.01665 18.88517 -8.83226 S
atom 0.75664 21.03183 -7.05103 C
atom 0.16843 18.52637 -6.15499 C
atom -0.33473 20.20392 -5.93470 S
atom 0.73665 17.99886 -7.34828 C
atom 1.29042 20.51371 -8.20027 C
atom 2.12852 21.29367 -9.03735 C
atom 1.03145 22.36750 -6.65817 C
atom 2.80476 21.90552 -9.76490 N
atom 1.21403 23.46524 -6.30834 N
atom 0.98925 16.64103 -7.18621 C
atom 1.54866 15.74037 -8.11325 C
atom 2.01182 14.98498 -8.87176 N
atom -0.01307 17.68223 -5.15464 N
atom 0.46734 16.17245 -5.59963 S
atom -3.78304 17.66946 -2.70930 S
atom -4.04305 15.52280 -0.92807 C
atom -4.63125 18.02826 -0.03203 C
atom -5.13442 16.35072 0.18826 S
atom -4.06304 18.55578 -1.22532 C
atom -3.50927 16.04092 -2.07731 C
atom -2.67117 15.26096 -2.91439 C
atom -3.76824 14.18713 -0.53521 C
atom -1.99493 14.64911 -3.64194 N
atom -3.58565 13.08939 -0.18538 N
atom -3.81044 19.91360 -1.06325 C
atom -3.25103 20.81427 -1.99028 C
atom -2.78787 21.56965 -2.74880 N
atom -4.81276 18.87241 0.96832 N
atom -4.33235 20.38218 0.52333 S
atom -2.64652 12.79273 -8.83226 S
atom -2.90653 14.93939 -7.05103 C
atom -3.49474 12.43393 -6.15499 C
atom -3.99791 14.11148 -5.93470 S
atom -2.92652 11.90642 -7.34828 C
atom -2.37275 14.42127 -8.20027 C
atom -1.53466 15.20123 -9.03735 C
atom -2.63173 16.27506 -6.65817 C
atom -0.85842 15.81308 -9.76490 N
atom -2.44914 17.37280 -6.30834 N
atom -2.67392 10.54859 -7.18621 C
atom -2.11452 9.64793 -8.11325 C
atom -1.65135 8.89254 -8.87176 N
atom -3.67624 11.58979 -5.15464 N
atom -3.19584 10.08001 -5.59963 S
atom -0.11986 23.76190 -2.70930 S
atom -0.37988 21.61524 -0.92807 C
atom -0.96808 24.12070 -0.03203 C
atom -1.47125 22.44316 0.18826 S
atom -0.39986 24.64822 -1.22532 C
atom 0.15391 22.13336 -2.07731 C
atom 0.99200 21.35340 -2.91439 C
atom -0.10507 20.27957 -0.53521 C
atom 1.66824 20.74155 -3.64194 N
atom 0.07752 19.18183 -0.18538 N
atom -0.14726 26.00604 -1.06325 C
atom 0.41214 26.90671 -1.99028 C
atom 0.87531 27.66209 -2.74880 N
atom -1.14958 24.96485 0.96832 N
atom -0.66918 26.47462 0.52333 S
atom 8.34300 18.88517 -8.83226 S
atom 8.08299 21.03183 -7.05103 C
atom 7.49478 18.52637 -6.15499 C
atom 6.99161 20.20392 -5.93470 S
atom 8.06300 17.99886 -7.34828 C
atom 8.61677 20.51371 -8.20027 C
atom 9.45487 21.29367 -9.03735 C
atom 8.35780 22.36750 -6.65817 C
atom 10.13111 21.90552 -9.76490 N
atom 8.54038 23.46524 -6.30834 N
atom 8.31560 16.64103 -7.18621 C
atom 8.87501 15.74037 -8.11325 C
atom 9.33817 14.98498 -8.87176 N
atom 7.31328 17.68223 -5.15464 N
atom 7.79369 16.17245 -5.59963 S
atom 3.54331 17.66946 -2.70930 S
atom 3.28330 15.52280 -0.92807 C
atom 2.69509 18.02826 -0.03203 C
atom 2.19192 16.35072 0.18826 S
atom 3.26331 18.55578 -1.22532 C
atom 3.81708 16.04092 -2.07731 C
atom 4.65518 15.26096 -2.91439 C
atom 3.55811 14.18713 -0.53521 C
atom 5.33142 14.64911 -3.64194 N
atom 3.74069 13.08939 -0.18538 N
atom 3.51591 19.91360 -1.06325 C
atom 4.07532 20.81427 -1.99028 C
atom 4.53848 21.56965 -2.74880 N
atom 2.51359 18.87241 0.96832 N
atom 2.99400 20.38218 0.52333 S
atom 4.67983 12.79273 -8.83226 S
atom 4.41981 14.93939 -7.05103 C
atom 3.83161 12.43393 -6.15499 C
atom 3.32844 14.11148 -5.93470 S
atom 4.39982 11.90642 -7.34828 C
atom 4.95359 14.42127 -8.20027 C
atom 5.79169 15.20123 -9.03735 C
atom 4.69462 16.27506 -6.65817 C
atom 6.46793 15.81308 -9.76490 N
atom 4.87721 17.37280 -6.30834 N
atom 4.65243 10.54859 -7.18621 C
atom 5.21183 9.64793 -8.11325 C
atom 5.67499 8.89254 -8.87176 N
atom 3.65011 11.58979 -5.15464 N
atom 4.13051 10.08001 -5.59963 S
atom 7.20649 23.76190 -2.70930 S
atom 6.94647 21.61524 -0.92807 C
atom 6.35827 24.12070 -0.03203 C
atom 5.85510 22.44316 0.18826 S
atom 6.92648 24.64822 -1.22532 C
atom 7.48025 22.13336 -2.07731 C
atom 8.31835 21.35340 -2.91439 C
atom 7.22128 20.27957 -0.53521 C
atom 8.99459 20.74155 -3.64194 N
atom 7.40387 19.18183 -0.18538 N
atom 7.17908 26.00604 -1.06325 C
atom 7.73849 26.90671 -1.99028 C
atom 8.20165 27.66209 -2.74880 N
atom 6.17676 24.96485 0.96832 N
atom 6.65717 26.47462 0.52333 S
atom 15.66935 18.88517 -8.83226 S
atom 15.40934 21.03183 -7.05103 C
atom 14.82113 18.52637 -6.15499 C
atom 14.31796 20.20392 -5.93470 S
atom 15.38935 17.99886 -7.34828 C
atom 15.94312 20.51371 -8.20027 C
atom 16.78122 21.29367 -9.03735 C
atom 15.68415 22.36750 -6.65817 C
atom 17.45745 21.90552 -9.76490 N
atom 15.86673 23.46524 -6.30834 N
atom 15.64195 16.64103 -7.18621 C
atom 16.20135 15.74037 -8.11325 C
atom 16.66452 14.98498 -8.87176 N
atom 14.63963 17.68223 -5.15464 N
atom 15.12003 16.17245 -5.59963 S
atom 10.86966 17.66946 -2.70930 S
atom 10.60965 15.52280 -0.92807 C
atom 10.02144 18.02826 -0.03203 C
atom 9.51827 16.35072 0.18826 S
atom 10.58966 18.55578 -1.22532 C
atom 11.14343 16.04092 -2.07731 C
atom 11.98153 15.26096 -2.91439 C
atom 10.88446 14.18713 -0.53521 C
atom 12.65777 14.64911 -3.64194 N
atom 11.06704 13.08939 -0.18538 N
atom 10.84226 19.91360 -1.06325 C
atom 11.40167 20.81427 -1.99028 C
atom 11.86483 21.56965 -2.74880 N
atom 9.83994 18.87241 0.96832 N
atom 10.32034 20.38218 0.52333 S
atom 12.00618 12.79273 -8.83226 S
atom 11.74616 14.93939 -7.05103 C
atom 11.15796 12.43393 -6.15499 C
atom 10.65479 14.11148 -5.93470 S
atom 11.72617 11.90642 -7.34828 C
atom 12.27994 14.42127 -8.20027 C
atom 13.11804 15.20123 -9.03735 C
atom 12.02097 16.27506 -6.65817 C
atom 13.79428 15.81308 -9.76490 N
atom 12.20356 17.37280 -6.30834 N
atom 11.97877 10.54859 -7.18621 C
atom 12.53818 9.64793 -8.11325 C
atom 13.00134 8.89254 -8.87176 N
atom 10.97645 11.58979 -5.15464 N
atom 11.45686 10.08001 -5.59963 S
atom 14.53284 23.76190 -2.70930 S
atom 14.27282 21.61524 -0.92807 C
atom 13.68462 24.12070 -0.03203 C
atom 13.18145 22.44316 0.18826 S
atom 14.25283 24.64822 -1.22532 C
atom 14.80660 22.13336 -2.07731 C
atom 15.64470 21.35340 -2.91439 C
atom 14.54763 20.27957 -0.53521 C
atom 16.32094 20.74155 -3.64194 N
atom 14.73022 19.18183 -0.18538 N
atom 14.50543 26.00604 -1.06325 C
atom 15.06484 26.90671 -1.99028 C
atom 15.52800 27.66209 -2.74880 N
atom 13.50311 24.96485 0.96832 N
atom 13.98352 26.47462 0.52333 S
atom -1.25638 -5.48458 3.41366 S
atom -1.51639 -3.33792 5.19489 C
atom -2.10460 -5.84338 6.09093 C
atom -2.60776 -4.16584 6.31122 S
atom -1.53638 -6.37090 4.89764 C
atom -0.98261 -3.85605 4.04565 C
atom -0.14451 -3.07609 3.20857 C
atom -1.24158 -2.00226 5.58775 C
atom 0.53173 -2.46424 2.48102 N
atom -1.05900 -0.90452 5.93758 N
atom -1.28378 -7.72873 5.05971 C
atom -0.72437 -8.62939 4.13268 C
atom -0.26121 -9.38477 3.37416 N
atom -2.28610 -6.68753 7.09128 N
atom -1.80569 -8.19731 6.64629 S
atom -6.05607 -6.70030 9.53662 S
atom -6.31608 -8.84695 11.31785 C
atom -6.90428 -6.34149 12.21389 C
atom -7.40745 -8.01904 12.43418 S
atom -6.33607 -5.81398 11.02060 C
atom -5.78230 -8.32883 10.16862 C
atom -4.94420 -9.10879 9.33153 C
atom -6.04127 -10.18262 11.71071 C
atom -4.26796 -9.72064 8.60398 N
atom -5.85868 -11.28036 12.06054 N
atom -6.08347 -4.45615 11.18267 C
atom -5.52406 -3.55549 10.25564 C
atom -5.06090 -2.80010 9.49712 N
atom -7.08579 -5.49735 13.21424 N
atom -6.60538 -3.98757 12.76925 S
atom -4.91955 -11.57702 3.41366 S
atom -5.17956 -9.43036 5.19489 C
atom -5.76777 -11.93582 6.09093 C
atom -6.27094 -10.25828 6.31122 S
atom -5.19955 -12.46334 4.89764 C
atom -4.64578 -9.94849 4.04565 C
atom -3.80768 -9.16852 3.20857 C
atom -4.90476 -8.09470 5.58775 C
atom -3.13145 -8.55667 2.48102 N
atom -4.72217 -6.99696 5.93758 N
atom -4.94695 -13.82117 5.05971 C
atom -4.38755 -14.72183 4.13268 C
atom -3.92438 -15.47721 3.37416 N
atom -5.94927 -12.77997 7.09128 N
atom -5.46887 -14.28975 6.64629 S
atom -2.39289 -0.60786 9.53662 S
atom -2.65291 -2.75451 11.31785 C
atom -3.24111 -0.24905 12.21389 C
atom -3.74428 -1.92660 12.43418 S
atom -2.67289 0.27846 11.02060 C
atom -2.11912 -2.23639 10.16862 C
atom -1.28103 -3.01635 9.33153 C
atom -2.37810 -4.09018 11.71071 C
atom -0.60479 -3.62820 8.60398 N
atom -2.19551 -5.18792 12.06054 N
atom -2.42029 1.63629 11.18267 C
atom -1.86089 2.53695 10.25564 C
atom -1.39772 3.29234 9.49712 N
atom -3.42261 0.59509 13.21424 N
atom -2.94221 2.10487 12.76925 S
atom 6.06997 -5.48458 3.41366 S
atom 5.80996 -3.33792 5.19489 C
atom 5.22175 -5.84338 6.09093 C
atom 4.71858 -4.16584 6.31122 S
atom 5.78997 -6.37090 4.89764 C
atom 6.34374 -3.85605 4.04565 C
atom 7.18184 -3.07609 3.20857 C
atom 6.08477 -2.00226 5.58775 C
atom 7.85808 -2.46424 2.48102 N
atom 6.26735 -0.90452 5.93758 N
atom 6.04257 -7.72873 5.05971 C
atom 6.60198 -8.62939 4.13268 C
atom 7.06514 -9.38477 3.37416 N
atom 5.04025 -6.68753 7.09128 N
atom 5.52066 -8.19731 6.64629 S
atom 1.27028 -6.70030 9.53662 S
atom 1.01027 -8.84695 11.31785 C
atom 0.42206 -6.34149 12.21389 C
atom -0.08111 -8.01904 12.43418 S
atom 0.99028 -5.81398 11.02060 C
atom 1.54405 -8.32883 10.16862 C
atom 2.38215 -9.10879 9.33153 C
atom 1.28508 -10.18262 11.71071 C
atom 3.05839 -9.72064 8.60398 N
atom 1.46766 -11.28036 12.06054 N
atom 1.24288 -4.45615 11.18267 C
atom 1.80229 -3.55549 10.25564 C
atom 2.26545 -2.80010 9.49712 N
atom 0.24056 -5.49735 13.21424 N
atom 0.72097 -3.98757 12.76925 S
atom 2.40680 -11.57702 3.41366 S
atom 2.14678 -9.43036 5.19489 C
atom 1.55858 -11.93582 6.09093 C
atom 1.05541 -10.25828 6.31122 S
atom 2.12679 -12.46334 4.89764 C
atom 2.68056 -9.94849 4.04565 C
atom 3.51866 -9.16852 3.20857 C
atom 2.42159 -8.09470 5.58775 C
atom 4.19490 -8.55667 2.48102 N
atom 2.60418 -6.99696 5.93758 N
atom 2.37940 -13.82117 5.05971 C
atom 2.93880 -14.72183 4.13268 C
atom 3.40196 -15.47721 3.37416 N
atom 1.37708 -12.77997 7.09128 N
atom 1.85748 -14.28975 6.64629 S
atom 4.93346 -0.60786 9.53662 S
atom 4.67344 -2.75451 11.31785 C
atom 4.08524 -0.24905 12.21389 C
atom 3.58207 -1.92660 12.43418 S
atom 4.65345 0.27846 11.02060 C
atom 5.20722 -2.23639 10.16862 C
atom 6.04532 -3.01635 9.33153 C
atom 4.94825 -4.09018 11.71071 C
atom 6.72156 -3.62820 8.60398 N
atom 5.13084 -5.18792 12.06054 N
atom 4.90605 1.63629 11.18267 C
atom 5.46546 2.53695 10.25564 C
atom 5.92862 3.29234 9.49712 N
atom 3.90374 0.59509 13.21424 N
atom 4.38414 2.10487 12.76925 S
atom 13.39632 -5.48458 3.41366 S
atom 13.13631 -3.33792 5.19489 C
atom 12.54810 -5.84338 6.09093 C
atom 12.04493 -4.16584 6.31122 S
atom 13.11632 -6.37090 4.89764 C
atom 13.67009 -3.85605 4.04565 C
atom 14.50819 -3.07609 3.20857 C
atom 13.41112 -2.00226 5.58775 C
atom 15.18442 -2.46424 2.48102 N
atom 13.59370 -0.90452 5.93758 N
atom 13.36892 -7.72873 5.05971 C
atom 13.92832 -8.62939 4.13268 C
atom 14.39149 -9.38477 3.37416 N
atom 12.36660 -6.68753 7.09128 N
atom 12.84700 -8.19731 6.64629 S
atom 8.59663 -6.70030 9.53662 S
atom 8.33662 -8.84695 11.31785 C
atom 7.74841 -6.34149 12.21389 C
atom 7.24524 -8.01904 12.43418 S
atom 8.31663 -5.81398 11.02060 C
atom 8.87040 -8.32883 10.16862 C
atom 9.70850 -9.10879 9.33153 C
atom 8.61143 -10.18262 11.71071 C
atom 10.38474 -9.72064 8.60398 N
atom 8.79401 -11.28036 12.06054 N
atom 8.56923 -4.45615 11.18267 C
atom 9.12864 -3.55549 10.25564 C
atom 9.59180 -2.80010 9.49712 N
atom 7.56691 -5.49735 13.21424 N
atom 8.04731 -3.98757 12.76925 S
atom 9.73315 -11.57702 3.41366 S
atom 9.47313 -9.43036 5.19489 C
atom 8.88493 -11.93582 6.09093 C
atom 8.38176 -10.25828 6.31122 S
atom 9.45314 -12.46334 4.89764 C
atom 10.00691 -9.94849 4.04565 C
atom 10.84501 -9.16852 3.20857 C
atom 9.74794 -8.09470 5.58775 C
atom 11.52125 -8.55667 2.48102 N
atom 9.93053 -6.99696 5.93758 N
atom 9.70574 -13.82117 5.05971 C
atom 10.26515 -14.72183 4.13268 C
atom 10.72831 -15.47721 3.37416 N
atom 8.70342 -12.77997 7.09128 N
atom 9.18383 -14.28975 6.64629 S
atom 12.25981 -0.60786 9.53662 S
atom 11.99979 -2.75451 11.31785 C
atom 11.41159 -0.24905 12.21389 C
atom 10.90842 -1.92660 12.43418 S
atom 11.97980 0.27846 11.02060 C
atom 12.53357 -2.23639 10.16862 C
atom 13.37167 -3.01635 9.33153 C
atom 12.27460 -4.09018 11.71071 C
atom 14.04791 -3.62820 8.60398 N
atom 12.45719 -5.18792 12.06054 N
atom 12.23240 1.63629 11.18267 C
atom 12.79181 2.53695 10.25564 C
atom 13.25497 3.29234 9.49712 N
atom 11.23008 0.59509 13.21424 N
atom 11.71049 2.10487 12.76925 S
atom -1.25638 6.70030 3.41366 S
atom -1.51639 8.84695 5.19489 C
atom -2.10460 6.34149 6.09093 C
atom -2.60776 8.01904 6.31122 S
atom -1.53638 5.81398 4.89764 C
atom -0.98261 8.32883 4.04565 C
atom -0.14451 9.10879 3.20857 C
atom -1.24158 10.18262 5.58775 C
atom 0.53173 9.72064 2.48102 N
atom -1.05900 11.28036 5.93758 N
atom -1.28378 4.45615 5.05971 C
atom -0.72437 3.55549 4.13268 C
atom -0.26121 2.80010 3.37416 N
atom -2.28610 5.49735 7.09128 N
atom -1.80569 3.98757 6.64629 S
atom -6.05607 5.48458 9.53662 S
atom -6.31608 3.33792 11.31785 C
atom -6.90428 5.84338 12.21389 C
atom -7.40745 4.16584 12.43418 S
atom -6.33607 6.37090 11.02060 C
atom -5.78230 3.85605 10.16862 C
atom -4.94420 3.07609 9.33153 C
atom -6.04127 2.00226 11.71071 C
atom -4.26796 2.46424 8.60398 N
atom -5.85868 0.90452 12.06054 N
atom -6.08347 7.72873 11.18267 C
atom -5.52406 8.62939 10.25564 C
atom -5.06090 9.38477 9.49712 N
atom -7.08579 6.68753 13.21424 N
atom -6.60538 8.19731 12.76925 S
atom -4.91955 0.60786 3.41366 S
atom -5.17956 2.75451 5.19489 C
atom -5.76777 0.24905 6.09093 C
atom -6.27094 1.92660 6.31122 S
atom -5.19955 -0.27846 4.89764 C
atom -4.64578 2.23639 4.04565 C
atom -3.80768 3.01635 3.20857 C
atom -4.90476 4.09018 5.58775 C
atom -3.13145 3.62820 2.48102 N
atom -4.72217 5.18792 5.93758 N
atom -4.94695 -1.63629 5.05971 C
atom -4.38755 -2.53695 4.13268 C
atom -3.92438 -3.29234 3.37416 N
atom -5.94927 -0.59509 7.09128 N
atom -5.46887 -2.10487 6.64629 S
atom -2.39289 11.57702 9.53662 S
atom -2.65291 9.43036 11.31785 C
atom -3.24111 11.93582 12.21389 C
atom -3.74428 10.25828 12.43418 S
atom -2.67289 12.46334 11.02060 C
atom -2.11912 9.94849 10.16862 C
atom -1.28103 9.16852 9.33153 C
atom -2.37810 8.09470 11.71071 C
atom -0.60479 8.55667 8.60398 N
atom -2.19551 6.99696 12.06054 N
atom -2.42029 13.82117 11.18267 C
atom -1.86089 14.72183 10.25564 C
atom -1.39772 15.47721 9.49712 N
atom -3.42261 12.77997 13.21424 N
atom -2.94221 14.28975 12.76925 S
atom 13.39632 6.70030 3.41366 S
atom 13.13631 8.84695 5.19489 C
atom 12.54810 6.34149 6.09093 C
atom 12.04493 8.01904 6.31122 S
atom 13.11632 5.81398 4.89764 C
atom 13.67009 8.32883 4.04565 C
atom 14.50819 9.10879 3.20857 C
atom 13.41112 10.18262 5.58775 C
atom 15.18442 9.72064 2.48102 N
atom 13.59370 11.28036 5.93758 N
atom 13.36892 4.45615 5.05971 C
atom 13.92832 3.55549 4.13268 C
atom 14.39149 2.80010 3.37416 N
atom 12.36660 5.49735 7.09128 N
atom 12.84700 3.98757 6.64629 S
atom 8.59663 5.48458 9.53662 S
atom 8.33662 3.33792 11.31785 C
atom 7.74841 5.84338 12.21389 C
atom 7.24524 4.16584 12.43418 S
atom 8.31663 6.37090 11.02060 C
atom 8.87040 3.85605 10.16862 C
atom 9.70850 3.07609 9.33153 C
atom 8.61143 2.00226 11.71071 C
atom 10.38474 2.46424 8.60398 N
atom 8.79401 0.90452 12.06054 N
atom 8.56923 7.72873 11.18267 C
atom 9.12864 8.62939 10.25564 C
atom 9.59180 9.38477 9.49712 N
atom 7.56691 6.68753 13.21424 N
atom 8.04731 8.19731 12.76925 S
atom 9.73315 0.60786 3.41366 S
atom 9.47313 2.75451 5.19489 C
atom 8.88493 0.24905 6.09093 C
atom 8.38176 1.92660 6.31122 S
atom 9.45314 -0.27846 4.89764 C
atom 10.00691 2.23639 4.04565 C
atom 10.84501 3.01635 3.20857 C
atom 9.74794 4.09018 5.58775 C
atom 11.52125 3.62820 2.48102 N
atom 9.93053 5.18792 5.93758 N
atom 9.70574 -1.63629 5.05971 C
atom 10.26515 -2.53695 4.13268 C
atom 10.72831 -3.29234 3.37416 N
atom 8.70342 -0.59509 7.09128 N
atom 9.18383 -2.10487 6.64629 S
atom 12.25981 11.57702 9.53662 S
atom 11.99979 9.43036 11.31785 C
atom 11.41159 11.93582 12.21389 C
atom 10.90842 10.25828 12.43418 S
atom 11.97980 12.46334 11.02060 C
atom 12.53357 9.94849 10.16862 C
atom 13.37167 9.16852 9.33153 C
atom 12.27460 8.09470 11.71071 C
atom 14.04791 8.55667 8.60398 N
atom 12.45719 6.99696 12.06054 N
atom 12.23240 13.82117 11.18267 C
atom 12.79181 14.72183 10.25564 C
atom 13.25497 15.47721 9.49712 N
atom 11.23008 12.77997 13.21424 N
atom 11.71049 14.28975 12.76925 S
atom -1.25638 18.88517 3.41366 S
atom -1.51639 21.03183 5.19489 C
atom -2.10460 18.52637 6.09093 C
atom -2.60776 20.20392 6.31122 S
atom -1.53638 17.99886 4.89764 C