lattice_vector 8.09772516354 0 0
lattice_vector 6.7650217035e-16 11.0481188669 0
lattice_vector 7.24286844507e-16 7.24286844507e-16 11.828501818
atom 5.85129 1.48652 8.42646 S
atom 5.61358 3.57114 10.28291 C
atom 4.63999 1.11724 10.95873 C
atom 4.30506 2.83171 11.21229 S
atom 5.29003 0.57733 9.81373 C
atom 6.22523 3.04275 9.17801 C
atom 7.24377 3.75275 8.49249 C
atom 5.98553 4.84688 10.78092 C
atom 8.07016 4.31051 7.88671 N
atom 6.24519 5.89935 11.21177 N
atom 5.36609 -0.80653 9.92745 C
atom 5.93220 -1.72690 9.02414 C
atom 6.39869 -2.49891 8.28464 N
atom 4.24105 0.25879 11.88075 N
atom 4.60051 -1.27699 11.41127 S
atom 2.24644 9.56160 2.51221 S
atom 2.48414 7.47698 4.36866 C
atom 3.45774 9.93087 5.04448 C
atom 3.79267 8.21641 5.29803 S
atom 2.80770 10.47079 3.89948 C
atom 1.87250 8.00537 3.26376 C
atom 0.85395 7.29537 2.57824 C
atom 2.11220 6.20124 4.86667 C
atom 0.02757 6.73761 1.97246 N
atom 1.85254 5.14877 5.29752 N
atom 2.73163 11.85464 4.01320 C
atom 2.16553 12.77502 3.10989 C
atom 1.69904 13.54703 2.37039 N
atom 3.85667 10.78933 5.96650 N
atom 3.49721 12.32511 5.49702 S
atom 1.80242 9.56160 8.42646 S
atom 1.56472 7.47698 10.28291 C
atom 0.59113 9.93087 10.95873 C
atom 0.25619 8.21641 11.21229 S
atom 1.24117 10.47079 9.81373 C
atom 2.17636 8.00537 9.17801 C
atom 3.19491 7.29537 8.49249 C
atom 1.93666 6.20124 10.78092 C
atom 4.02130 6.73761 7.88671 N
atom 2.19633 5.14877 11.21177 N
atom 1.31723 11.85464 9.92745 C
atom 1.88334 12.77502 9.02414 C
atom 2.34983 13.54703 8.28464 N
atom 0.19219 10.78933 11.88075 N
atom 0.55165 12.32511 11.41127 S
atom 6.29530 1.48652 2.51221 S
atom 6.53301 3.57114 4.36866 C
atom 7.50660 1.11724 5.04448 C
atom 7.84153 2.83171 5.29803 S
atom 6.85656 0.57733 3.89948 C
atom 5.92136 3.04275 3.26376 C
atom 4.90282 3.75275 2.57824 C
atom 6.16106 4.84688 4.86667 C
atom 4.07643 4.31051 1.97246 N
atom 5.90140 5.89935 5.29752 N
atom 6.78049 -0.80653 4.01320 C
atom 6.21439 -1.72690 3.10989 C
atom 5.74790 -2.49891 2.37039 N
atom 7.90553 0.25879 5.96650 N
atom 7.54608 -1.27699 5.49702 S
atom -2.24644 -9.56160 -3.40204 S
atom -2.48414 -7.47698 -1.54559 C
atom -3.45774 -9.93087 -0.86977 C
atom -3.79267 -8.21641 -0.61622 S
atom -2.80770 -10.47079 -2.01477 C
atom -1.87250 -8.00537 -2.65049 C
atom -0.85395 -7.29537 -3.33601 C
atom -2.11220 -6.20124 -1.04758 C
atom -0.02757 -6.73761 -3.94179 N
atom -1.85254 -5.14877 -0.61673 N
atom -2.73163 -11.85464 -1.90106 C
atom -2.16553 -12.77502 -2.80436 C
atom -1.69904 -13.54703 -3.54386 N
atom -3.85667 -10.78933 0.05225 N
atom -3.49721 -12.32511 -0.41723 S
atom -5.85129 -1.48652 -9.31629 S
atom -5.61358 -3.57114 -7.45984 C
atom -4.63999 -1.11724 -6.78402 C
atom -4.30506 -2.83171 -6.53047 S
atom -5.29003 -0.57733 -7.92902 C
atom -6.22523 -3.04275 -8.56474 C
atom -7.24377 -3.75275 -9.25026 C
atom -5.98553 -4.84688 -6.96183 C
atom -8.07016 -4.31051 -9.85604 N
atom -6.24519 -5.89935 -6.53098 N
atom -5.36609 0.80653 -7.81531 C
atom -5.93220 1.72690 -8.71861 C
atom -6.39869 2.49891 -9.45811 N
atom -4.24105 -0.25879 -5.86200 N
atom -4.60051 1.27699 -6.33148 S
atom -6.29530 -1.48652 -3.40204 S
atom -6.53301 -3.57114 -1.54559 C
atom -7.50660 -1.11724 -0.86977 C
atom -7.84153 -2.83171 -0.61622 S
atom -6.85656 -0.57733 -2.01477 C
atom -5.92136 -3.04275 -2.65049 C
atom -4.90282 -3.75275 -3.33601 C
atom -6.16106 -4.84688 -1.04758 C
atom -4.07643 -4.31051 -3.94179 N
atom -5.90140 -5.89935 -0.61673 N
atom -6.78049 0.80653 -1.90106 C
atom -6.21439 1.72690 -2.80436 C
atom -5.74790 2.49891 -3.54386 N
atom -7.90553 -0.25879 0.05225 N
atom -7.54608 1.27699 -0.41723 S
atom -1.80242 -9.56160 -9.31629 S
atom -1.56472 -7.47698 -7.45984 C
atom -0.59113 -9.93087 -6.78402 C
atom -0.25619 -8.21641 -6.53047 S
atom -1.24117 -10.47079 -7.92902 C
atom -2.17636 -8.00537 -8.56474 C
atom -3.19491 -7.29537 -9.25026 C
atom -1.93666 -6.20124 -6.96183 C
atom -4.02130 -6.73761 -9.85604 N
atom -2.19633 -5.14877 -6.53098 N
atom -1.31723 -11.85464 -7.81531 C
atom -1.88334 -12.77502 -8.71861 C
atom -2.34983 -13.54703 -9.45811 N
atom -0.19219 -10.78933 -5.86200 N
atom -0.55165 -12.32511 -6.33148 S
atom 5.85129 -9.56160 -3.40204 S
atom 5.61358 -7.47698 -1.54559 C
atom 4.63999 -9.93087 -0.86977 C
atom 4.30506 -8.21641 -0.61622 S
atom 5.29003 -10.47079 -2.01477 C
atom 6.22523 -8.00537 -2.65049 C
atom 7.24377 -7.29537 -3.33601 C
atom 5.98553 -6.20124 -1.04758 C
atom 8.07016 -6.73761 -3.94179 N
atom 6.24519 -5.14877 -0.61673 N
atom 5.36609 -11.85464 -1.90106 C
atom 5.93220 -12.77502 -2.80436 C
atom 6.39869 -13.54703 -3.54386 N
atom 4.24105 -10.78933 0.05225 N
atom 4.60051 -12.32511 -0.41723 S
atom 2.24644 -1.48652 -9.31629 S
atom 2.48414 -3.57114 -7.45984 C
atom 3.45774 -1.11724 -6.78402 C
atom 3.79267 -2.83171 -6.53047 S
atom 2.80770 -0.57733 -7.92902 C
atom 1.87250 -3.04275 -8.56474 C
atom 0.85395 -3.75275 -9.25026 C
atom 2.11220 -4.84688 -6.96183 C
atom 0.02757 -4.31051 -9.85604 N
atom 1.85254 -5.89935 -6.53098 N
atom 2.73163 0.80653 -7.81531 C
atom 2.16553 1.72690 -8.71861 C
atom 1.69904 2.49891 -9.45811 N
atom 3.85667 -0.25879 -5.86200 N
atom 3.49721 1.27699 -6.33148 S
atom 1.80242 -1.48652 -3.40204 S
atom 1.56472 -3.57114 -1.54559 C
atom 0.59113 -1.11724 -0.86977 C
atom 0.25619 -2.83171 -0.61622 S
atom 1.24117 -0.57733 -2.01477 C
atom 2.17636 -3.04275 -2.65049 C
atom 3.19491 -3.75275 -3.33601 C
atom 1.93666 -4.84688 -1.04758 C
atom 4.02130 -4.31051 -3.94179 N
atom 2.19633 -5.89935 -0.61673 N
atom 1.31723 0.80653 -1.90106 C
atom 1.88334 1.72690 -2.80436 C
atom 2.34983 2.49891 -3.54386 N
atom 0.19219 -0.25879 0.05225 N
atom 0.55165 1.27699 -0.41723 S
atom 6.29530 -9.56160 -9.31629 S
atom 6.53301 -7.47698 -7.45984 C
atom 7.50660 -9.93087 -6.78402 C
atom 7.84153 -8.21641 -6.53047 S
atom 6.85656 -10.47079 -7.92902 C
atom 5.92136 -8.00537 -8.56474 C
atom 4.90282 -7.29537 -9.25026 C
atom 6.16106 -6.20124 -6.96183 C
atom 4.07643 -6.73761 -9.85604 N
atom 5.90140 -5.14877 -6.53098 N
atom 6.78049 -11.85464 -7.81531 C
atom 6.21439 -12.77502 -8.71861 C
atom 5.74790 -13.54703 -9.45811 N
atom 7.90553 -10.78933 -5.86200 N
atom 7.54608 -12.32511 -6.33148 S
atom 13.94901 -9.56160 -3.40204 S
atom 13.71131 -7.47698 -1.54559 C
atom 12.73771 -9.93087 -0.86977 C
atom 12.40278 -8.21641 -0.61622 S
atom 13.38776 -10.47079 -2.01477 C
atom 14.32295 -8.00537 -2.65049 C
atom 15.34150 -7.29537 -3.33601 C
atom 14.08325 -6.20124 -1.04758 C
atom 16.16788 -6.73761 -3.94179 N
atom 14.34292 -5.14877 -0.61673 N
atom 13.46382 -11.85464 -1.90106 C
atom 14.02992 -12.77502 -2.80436 C
atom 14.49642 -13.54703 -3.54386 N
atom 12.33878 -10.78933 0.05225 N
atom 12.69824 -12.32511 -0.41723 S
atom 10.34416 -1.48652 -9.31629 S
atom 10.58187 -3.57114 -7.45984 C
atom 11.55546 -1.11724 -6.78402 C
atom 11.89039 -2.83171 -6.53047 S
atom 10.90542 -0.57733 -7.92902 C
atom 9.97022 -3.04275 -8.56474 C
atom 8.95168 -3.75275 -9.25026 C
atom 10.20992 -4.84688 -6.96183 C
atom 8.12529 -4.31051 -9.85604 N
atom 9.95026 -5.89935 -6.53098 N
atom 10.82936 0.80653 -7.81531 C
atom 10.26325 1.72690 -8.71861 C
atom 9.79676 2.49891 -9.45811 N
atom 11.95440 -0.25879 -5.86200 N
atom 11.59494 1.27699 -6.33148 S
atom 9.90015 -1.48652 -3.40204 S
atom 9.66244 -3.57114 -1.54559 C
atom 8.68885 -1.11724 -0.86977 C
atom 8.35392 -2.83171 -0.61622 S
atom 9.33889 -0.57733 -2.01477 C
atom 10.27409 -3.04275 -2.65049 C
atom 11.29263 -3.75275 -3.33601 C
atom 10.03439 -4.84688 -1.04758 C
atom 12.11902 -4.31051 -3.94179 N
atom 10.29405 -5.89935 -0.61673 N
atom 9.41496 0.80653 -1.90106 C
atom 9.98106 1.72690 -2.80436 C
atom 10.44755 2.49891 -3.54386 N
atom 8.28992 -0.25879 0.05225 N
atom 8.64937 1.27699 -0.41723 S
atom 14.39303 -9.56160 -9.31629 S
atom 14.63073 -7.47698 -7.45984 C
atom 15.60432 -9.93087 -6.78402 C
atom 15.93926 -8.21641 -6.53047 S
atom 14.95428 -10.47079 -7.92902 C
atom 14.01909 -8.00537 -8.56474 C
atom 13.00054 -7.29537 -9.25026 C
atom 14.25879 -6.20124 -6.96183 C
atom 12.17415 -6.73761 -9.85604 N
atom 13.99912 -5.14877 -6.53098 N
atom 14.87822 -11.85464 -7.81531 C
atom 14.31211 -12.77502 -8.71861 C
atom 13.84562 -13.54703 -9.45811 N
atom 16.00326 -10.78933 -5.86200 N
atom 15.64380 -12.32511 -6.33148 S
atom -2.24644 1.48652 -3.40204 S
atom -2.48414 3.57114 -1.54559 C
atom -3.45774 1.11724 -0.86977 C
atom -3.79267 2.83171 -0.61622 S
atom -2.80770 0.57733 -2.01477 C
atom -1.87250 3.04275 -2.65049 C
atom -0.85395 3.75275 -3.33601 C
atom -2.11220 4.84688 -1.04758 C
atom -0.02757 4.31051 -3.94179 N
atom -1.85254 5.89935 -0.61673 N
atom -2.73163 -0.80653 -1.90106 C
atom -2.16553 -1.72690 -2.80436 C
atom -1.69904 -2.49891 -3.54386 N
atom -3.85667 0.25879 0.05225 N
atom -3.49721 -1.27699 -0.41723 S
atom -5.85129 9.56160 -9.31629 S
atom -5.61358 7.47698 -7.45984 C
atom -4.63999 9.93087 -6.78402 C
atom -4.30506 8.21641 -6.53047 S
atom -5.29003 10.47079 -7.92902 C
atom -6.22523 8.00537 -8.56474 C
atom -7.24377 7.29537 -9.25026 C
atom -5.98553 6.20124 -6.96183 C
atom -8.07016 6.73761 -9.85604 N
atom -6.24519 5.14877 -6.53098 N
atom -5.36609 11.85464 -7.81531 C
atom -5.93220 12.77502 -8.71861 C
atom -6.39869 13.54703 -9.45811 N
atom -4.24105 10.78933 -5.86200 N
atom -4.60051 12.32511 -6.33148 S
atom -6.29530 9.56160 -3.40204 S
atom -6.53301 7.47698 -1.54559 C
atom -7.50660 9.93087 -0.86977 C
atom -7.84153 8.21641 -0.61622 S
atom -6.85656 10.47079 -2.01477 C
atom -5.92136 8.00537 -2.65049 C
atom -4.90282 7.29537 -3.33601 C
atom -6.16106 6.20124 -1.04758 C
atom -4.07643 6.73761 -3.94179 N
atom -5.90140 5.14877 -0.61673 N
atom -6.78049 11.85464 -1.90106 C
atom -6.21439 12.77502 -2.80436 C
atom -5.74790 13.54703 -3.54386 N
atom -7.90553 10.78933 0.05225 N
atom -7.54608 12.32511 -0.41723 S
atom -1.80242 1.48652 -9.31629 S
atom -1.56472 3.57114 -7.45984 C
atom -0.59113 1.11724 -6.78402 C
atom -0.25619 2.83171 -6.53047 S
atom -1.24117 0.57733 -7.92902 C
atom -2.17636 3.04275 -8.56474 C
atom -3.19491 3.75275 -9.25026 C
atom -1.93666 4.84688 -6.96183 C
atom -4.02130 4.31051 -9.85604 N
atom -2.19633 5.89935 -6.53098 N
atom -1.31723 -0.80653 -7.81531 C
atom -1.88334 -1.72690 -8.71861 C
atom -2.34983 -2.49891 -9.45811 N
atom -0.19219 0.25879 -5.86200 N
atom -0.55165 -1.27699 -6.33148 S
atom 5.85129 1.48652 -3.40204 S
atom 5.61358 3.57114 -1.54559 C
atom 4.63999 1.11724 -0.86977 C
atom 4.30506 2.83171 -0.61622 S
atom 5.29003 0.57733 -2.01477 C
atom 6.22523 3.04275 -2.65049 C
atom 7.24377 3.75275 -3.33601 C
atom 5.98553 4.84688 -1.04758 C
atom 8.07016 4.31051 -3.94179 N
atom 6.24519 5.89935 -0.61673 N
atom 5.36609 -0.80653 -1.90106 C
atom 5.93220 -1.72690 -2.80436 C
atom 6.39869 -2.49891 -3.54386 N
atom 4.24105 0.25879 0.05225 N
atom 4.60051 -1.27699 -0.41723 S
atom 2.24644 9.56160 -9.31629 S
atom 2.48414 7.47698 -7.45984 C
atom 3.45774 9.93087 -6.78402 C
atom 3.79267 8.21641 -6.53047 S
atom 2.80770 10.47079 -7.92902 C
atom 1.87250 8.00537 -8.56474 C
atom 0.85395 7.29537 -9.25026 C
atom 2.11220 6.20124 -6.96183 C
atom 0.02757 6.73761 -9.85604 N
atom 1.85254 5.14877 -6.53098 N
atom 2.73163 11.85464 -7.81531 C
atom 2.16553 12.77502 -8.71861 C
atom 1.69904 13.54703 -9.45811 N
atom 3.85667 10.78933 -5.86200 N
atom 3.49721 12.32511 -6.33148 S
atom 1.80242 9.56160 -3.40204 S
atom 1.56472 7.47698 -1.54559 C
atom 0.59113 9.93087 -0.86977 C
atom 0.25619 8.21641 -0.61622 S
atom 1.24117 10.47079 -2.01477 C
atom 2.17636 8.00537 -2.65049 C
atom 3.19491 7.29537 -3.33601 C
atom 1.93666 6.20124 -1.04758 C
atom 4.02130 6.73761 -3.94179 N
atom 2.19633 5.14877 -0.61673 N
atom 1.31723 11.85464 -1.90106 C
atom 1.88334 12.77502 -2.80436 C
atom 2.34983 13.54703 -3.54386 N
atom 0.19219 10.78933 0.05225 N
atom 0.55165 12.32511 -0.41723 S
atom 6.29530 1.48652 -9.31629 S
atom 6.53301 3.57114 -7.45984 C
atom 7.50660 1.11724 -6.78402 C
atom 7.84153 2.83171 -6.53047 S
atom 6.85656 0.57733 -7.92902 C
atom 5.92136 3.04275 -8.56474 C
atom 4.90282 3.75275 -9.25026 C
atom 6.16106 4.84688 -6.96183 C
atom 4.07643 4.31051 -9.85604 N
atom 5.90140 5.89935 -6.53098 N
atom 6.78049 -0.80653 -7.81531 C
atom 6.21439 -1.72690 -8.71861 C
atom 5.74790 -2.49891 -9.45811 N
atom 7.90553 0.25879 -5.86200 N
atom 7.54608 -1.27699 -6.33148 S
atom 13.94901 1.48652 -3.40204 S
atom 13.71131 3.57114 -1.54559 C
atom 12.73771 1.11724 -0.86977 C
atom 12.40278 2.83171 -0.61622 S
atom 13.38776 0.57733 -2.01477 C
atom 14.32295 3.04275 -2.65049 C
atom 15.34150 3.75275 -3.33601 C
atom 14.08325 4.84688 -1.04758 C
atom 16.16788 4.31051 -3.94179 N
atom 14.34292 5.89935 -0.61673 N
atom 13.46382 -0.80653 -1.90106 C
atom 14.02992 -1.72690 -2.80436 C
atom 14.49642 -2.49891 -3.54386 N
atom 12.33878 0.25879 0.05225 N
atom 12.69824 -1.27699 -0.41723 S
atom 10.34416 9.56160 -9.31629 S
atom 10.58187 7.47698 -7.45984 C
atom 11.55546 9.93087 -6.78402 C
atom 11.89039 8.21641 -6.53047 S
atom 10.90542 10.47079 -7.92902 C
atom 9.97022 8.00537 -8.56474 C
atom 8.95168 7.29537 -9.25026 C
atom 10.20992 6.20124 -6.96183 C
atom 8.12529 6.73761 -9.85604 N
atom 9.95026 5.14877 -6.53098 N
atom 10.82936 11.85464 -7.81531 C
atom 10.26325 12.77502 -8.71861 C
atom 9.79676 13.54703 -9.45811 N
atom 11.95440 10.78933 -5.86200 N
atom 11.59494 12.32511 -6.33148 S
atom 9.90015 9.56160 -3.40204 S
atom 9.66244 7.47698 -1.54559 C
atom 8.68885 9.93087 -0.86977 C
atom 8.35392 8.21641 -0.61622 S
atom 9.33889 10.47079 -2.01477 C
atom 10.27409 8.00537 -2.65049 C
atom 11.29263 7.29537 -3.33601 C
atom 10.03439 6.20124 -1.04758 C
atom 12.11902 6.73761 -3.94179 N
atom 10.29405 5.14877 -0.61673 N
atom 9.41496 11.85464 -1.90106 C
atom 9.98106 12.77502 -2.80436 C
atom 10.44755 13.54703 -3.54386 N
atom 8.28992 10.78933 0.05225 N
atom 8.64937 12.32511 -0.41723 S
atom 14.39303 1.48652 -9.31629 S
atom 14.63073 3.57114 -7.45984 C
atom 15.60432 1.11724 -6.78402 C
atom 15.93926 2.83171 -6.53047 S
atom 14.95428 0.57733 -7.92902 C
atom 14.01909 3.04275 -8.56474 C
atom 13.00054 3.75275 -9.25026 C
atom 14.25879 4.84688 -6.96183 C
atom 12.17415 4.31051 -9.85604 N
atom 13.99912 5.89935 -6.53098 N
atom 14.87822 -0.80653 -7.81531 C
atom 14.31211 -1.72690 -8.71861 C
atom 13.84562 -2.49891 -9.45811 N
atom 16.00326 0.25879 -5.86200 N
atom 15.64380 -1.27699 -6.33148 S
atom -2.24644 12.53464 -3.40204 S
atom -2.48414 14.61926 -1.54559 C
atom -3.45774 12.16536 -0.86977 C
atom -3.79267 13.87983 -0.61622 S
atom -2.80770 11.62545 -2.01477 C
atom -1.87250 14.09087 -2.65049 C
atom -0.85395 14.80087 -3.33601 C
atom -2.11220 15.89499 -1.04758 C
atom -0.02757 15.35862 -3.94179 N
atom -1.85254 16.94747 -0.61673 N
atom -2.73163 10.24159 -1.90106 C
atom -2.16553 9.32122 -2.80436 C
atom -1.69904 8.54921 -3.54386 N
atom -3.85667 11.30691 0.05225 N
atom -3.49721 9.77113 -0.41723 S
atom -5.85129 20.60972 -9.31629 S
atom -5.61358 18.52510 -7.45984 C
atom -4.63999 20.97899 -6.78402 C
atom -4.30506 19.26453 -6.53047 S
atom -5.29003 21.51891 -7.92902 C
atom -6.22523 19.05349 -8.56474 C
atom -7.24377 18.34349 -9.25026 C
atom -5.98553 17.24936 -6.96183 C
atom -8.07016 17.78573 -9.85604 N
atom -6.24519 16.19689 -6.53098 N
atom -5.36609 22.90276 -7.81531 C
atom -5.93220 23.82314 -8.71861 C
atom -6.39869 24.59515 -9.45811 N
atom -4.24105 21.83745 -5.86200 N
atom -4.60051 23.37323 -6.33148 S
atom -6.29530 20.60972 -3.40204 S
atom -6.53301 18.52510 -1.54559 C
atom -7.50660 20.97899 -0.86977 C
atom -7.84153 19.26453 -0.61622 S
atom -6.85656 21.51891 -2.01477 C
atom -5.92136 19.05349 -2.65049 C
atom -4.90282 18.34349 -3.33601 C
atom -6.16106 17.24936 -1.04758 C
atom -4.07643 17.78573 -3.94179 N
atom -5.90140 16.19689 -0.61673 N
atom -6.78049 22.90276 -1.90106 C
atom -6.21439 23.82314 -2.80436 C
atom -5.74790 24.59515 -3.54386 N
atom -7.90553 21.83745 0.05225 N
atom -7.54608 23.37323 -0.41723 S
atom -1.80242 12.53464 -9.31629 S
atom -1.56472 14.61926 -7.45984 C
atom -0.59113 12.16536 -6.78402 C
atom -0.25619 13.87983 -6.53047 S
atom -1.24117 11.62545 -7.92902 C
atom -2.17636 14.09087 -8.56474 C
atom -3.19491 14.80087 -9.25026 C
atom -1.93666 15.89499 -6.96183 C
atom -4.02130 15.35862 -9.85604 N
atom -2.19633 16.94747 -6.53098 N
atom -1.31723 10.24159 -7.81531 C
atom -1.88334 9.32122 -8.71861 C
atom -2.34983 8.54921 -9.45811 N
atom -0.19219 11.30691 -5.86200 N
atom -0.55165 9.77113 -6.33148 S
atom 5.85129 12.53464 -3.40204 S
atom 5.61358 14.61926 -1.54559 C
atom 4.63999 12.16536 -0.86977 C
atom 4.30506 13.87983 -0.61622 S
atom 5.29003 11.62545 -2.01477 C
atom 6.22523 14.09087 -2.65049 C
atom 7.24377 14.80087 -3.33601 C
atom 5.98553 15.89499 -1.04758 C
atom 8.07016 15.35862 -3.94179 N
atom 6.24519 16.94747 -0.61673 N
atom 5.36609 10.24159 -1.90106 C
atom 5.93220 9.32122 -2.80436 C
atom 6.39869 8.54921 -3.54386 N
atom 4.24105 11.30691 0.05225 N
atom 4.60051 9.77113 -0.41723 S
atom 2.24644 20.60972 -9.31629 S
atom 2.48414 18.52510 -7.45984 C
atom 3.45774 20.97899 -6.78402 C
atom 3.79267 19.26453 -6.53047 S
atom 2.80770 21.51891 -7.92902 C
atom 1.87250 19.05349 -8.56474 C
atom 0.85395 18.34349 -9.25026 C
atom 2.11220 17.24936 -6.96183 C
atom 0.02757 17.78573 -9.85604 N
atom 1.85254 16.19689 -6.53098 N
atom 2.73163 22.90276 -7.81531 C
atom 2.16553 23.82314 -8.71861 C
atom 1.69904 24.59515 -9.45811 N
atom 3.85667 21.83745 -5.86200 N
atom 3.49721 23.37323 -6.33148 S
atom 1.80242 20.60972 -3.40204 S
atom 1.56472 18.52510 -1.54559 C
atom 0.59113 20.97899 -0.86977 C
atom 0.25619 19.26453 -0.61622 S
atom 1.24117 21.51891 -2.01477 C
atom 2.17636 19.05349 -2.65049 C
atom 3.19491 18.34349 -3.33601 C
atom 1.93666 17.24936 -1.04758 C
atom 4.02130 17.78573 -3.94179 N
atom 2.19633 16.19689 -0.61673 N
atom 1.31723 22.90276 -1.90106 C
atom 1.88334 23.82314 -2.80436 C
atom 2.34983 24.59515 -3.54386 N
atom 0.19219 21.83745 0.05225 N
atom 0.55165 23.37323 -0.41723 S
atom 6.29530 12.53464 -9.31629 S
atom 6.53301 14.61926 -7.45984 C
atom 7.50660 12.16536 -6.78402 C
atom 7.84153 13.87983 -6.53047 S
atom 6.85656 11.62545 -7.92902 C
atom 5.92136 14.09087 -8.56474 C
atom 4.90282 14.80087 -9.25026 C
atom 6.16106 15.89499 -6.96183 C
atom 4.07643 15.35862 -9.85604 N
atom 5.90140 16.94747 -6.53098 N
atom 6.78049 10.24159 -7.81531 C
atom 6.21439 9.32122 -8.71861 C
atom 5.74790 8.54921 -9.45811 N
atom 7.90553 11.30691 -5.86200 N
atom 7.54608 9.77113 -6.33148 S
atom 13.94901 12.53464 -3.40204 S
atom 13.71131 14.61926 -1.54559 C
atom 12.73771 12.16536 -0.86977 C
atom 12.40278 13.87983 -0.61622 S
atom 13.38776 11.62545 -2.01477 C
atom 14.32295 14.09087 -2.65049 C
atom 15.34150 14.80087 -3.33601 C
atom 14.08325 15.89499 -1.04758 C
atom 16.16788 15.35862 -3.94179 N
atom 14.34292 16.94747 -0.61673 N
atom 13.46382 10.24159 -1.90106 C
atom 14.02992 9.32122 -2.80436 C
atom 14.49642 8.54921 -3.54386 N
atom 12.33878 11.30691 0.05225 N
atom 12.69824 9.77113 -0.41723 S
atom 10.34416 20.60972 -9.31629 S
atom 10.58187 18.52510 -7.45984 C
atom 11.55546 20.97899 -6.78402 C
atom 11.89039 19.26453 -6.53047 S
atom 10.90542 21.51891 -7.92902 C
atom 9.97022 19.05349 -8.56474 C
atom 8.95168 18.34349 -9.25026 C
atom 10.20992 17.24936 -6.96183 C
atom 8.12529 17.78573 -9.85604 N
atom 9.95026 16.19689 -6.53098 N
atom 10.82936 22.90276 -7.81531 C
atom 10.26325 23.82314 -8.71861 C
atom 9.79676 24.59515 -9.45811 N
atom 11.95440 21.83745 -5.86200 N
atom 11.59494 23.37323 -6.33148 S
atom 9.90015 20.60972 -3.40204 S
atom 9.66244 18.52510 -1.54559 C
atom 8.68885 20.97899 -0.86977 C
atom 8.35392 19.26453 -0.61622 S
atom 9.33889 21.51891 -2.01477 C
atom 10.27409 19.05349 -2.65049 C
atom 11.29263 18.34349 -3.33601 C
atom 10.03439 17.24936 -1.04758 C
atom 12.11902 17.78573 -3.94179 N
atom 10.29405 16.19689 -0.61673 N
atom 9.41496 22.90276 -1.90106 C
atom 9.98106 23.82314 -2.80436 C
atom 10.44755 24.59515 -3.54386 N
atom 8.28992 21.83745 0.05225 N
atom 8.64937 23.37323 -0.41723 S
atom 14.39303 12.53464 -9.31629 S
atom 14.63073 14.61926 -7.45984 C
atom 15.60432 12.16536 -6.78402 C
atom 15.93926 13.87983 -6.53047 S
atom 14.95428 11.62545 -7.92902 C
atom 14.01909 14.09087 -8.56474 C
atom 13.00054 14.80087 -9.25026 C
atom 14.25879 15.89499 -6.96183 C
atom 12.17415 15.35862 -9.85604 N
atom 13.99912 16.94747 -6.53098 N
atom 14.87822 10.24159 -7.81531 C
atom 14.31211 9.32122 -8.71861 C
atom 13.84562 8.54921 -9.45811 N
atom 16.00326 11.30691 -5.86200 N
atom 15.64380 9.77113 -6.33148 S
atom -2.24644 -9.56160 8.42646 S
atom -2.48414 -7.47698 10.28291 C
atom -3.45774 -9.93087 10.95873 C
atom -3.79267 -8.21641 11.21229 S
atom -2.80770 -10.47079 9.81373 C
atom -1.87250 -8.00537 9.17801 C
atom -0.85395 -7.29537 8.49249 C
atom -2.11220 -6.20124 10.78092 C
atom -0.02757 -6.73761 7.88671 N
atom -1.85254 -5.14877 11.21177 N
atom -2.73163 -11.85464 9.92745 C
atom -2.16553 -12.77502 9.02414 C
atom -1.69904 -13.54703 8.28464 N
atom -3.85667 -10.78933 11.88075 N
atom -3.49721 -12.32511 11.41127 S
atom -5.85129 -1.48652 2.51221 S
atom -5.61358 -3.57114 4.36866 C
atom -4.63999 -1.11724 5.04448 C
atom -4.30506 -2.83171 5.29803 S
atom -5.29003 -0.57733 3.89948 C
atom -6.22523 -3.04275 3.26376 C
atom -7.24377 -3.75275 2.57824 C
atom -5.98553 -4.84688 4.86667 C
atom -8.07016 -4.31051 1.97246 N
atom -6.24519 -5.89935 5.29752 N
atom -5.36609 0.80653 4.01320 C
atom -5.93220 1.72690 3.10989 C
atom -6.39869 2.49891 2.37039 N
atom -4.24105 -0.25879 5.96650 N
atom -4.60051 1.27699 5.49702 S
atom -6.29530 -1.48652 8.42646 S
atom -6.53301 -3.57114 10.28291 C
atom -7.50660 -1.11724 10.95873 C
atom -7.84153 -2.83171 11.21229 S
atom -6.85656 -0.57733 9.81373 C
atom -5.92136 -3.04275 9.17801 C
atom -4.90282 -3.75275 8.49249 C
atom -6.16106 -4.84688 10.78092 C
atom -4.07643 -4.31051 7.88671 N
atom -5.90140 -5.89935 11.21177 N
atom -6.78049 0.80653 9.92745 C
atom -6.21439 1.72690 9.02414 C
atom -5.74790 2.49891 8.28464 N
atom -7.90553 -0.25879 11.88075 N
atom -7.54608 1.27699 11.41127 S
atom -1.80242 -9.56160 2.51221 S
atom -1.56472 -7.47698 4.36866 C
atom -0.59113 -9.93087 5.04448 C
atom -0.25619 -8.21641 5.29803 S
atom -1.24117 -10.47079 3.89948 C
atom -2.17636 -8.00537 3.26376 C
atom -3.19491 -7.29537 2.57824 C
atom -1.93666 -6.20124 4.86667 C
atom -4.02130 -6.73761 1.97246 N
atom -2.19633 -5.14877 5.29752 N
atom -1.31723 -11.85464 4.01320 C
atom -1.88334 -12.77502 3.10989 C
atom -2.34983 -13.54703 2.37039 N
atom -0.19219 -10.78933 5.96650 N
atom -0.55165 -12.32511 5.49702 S
atom 5.85129 -9.56160 8.42646 S
atom 5.61358 -7.47698 10.28291 C
atom 4.63999 -9.93087 10.95873 C
atom 4.30506 -8.21641 11.21229 S
atom 5.29003 -10.47079 9.81373 C
atom 6.22523 -8.00537 9.17801 C
atom 7.24377 -7.29537 8.49249 C
atom 5.98553 -6.20124 10.78092 C
atom 8.07016 -6.73761 7.88671 N
atom 6.24519 -5.14877 11.21177 N
atom 5.36609 -11.85464 9.92745 C
atom 5.93220 -12.77502 9.02414 C
atom 6.39869 -13.54703 8.28464 N
atom 4.24105 -10.78933 11.88075 N
atom 4.60051 -12.32511 11.41127 S
atom 2.24644 -1.48652 2.51221 S
atom 2.48414 -3.57114 4.36866 C
atom 3.45774 -1.11724 5.04448 C
atom 3.79267 -2.83171 5.29803 S
atom 2.80770 -0.57733 3.89948 C
atom 1.87250 -3.04275 3.26376 C
atom 0.85395 -3.75275 2.57824 C
atom 2.11220 -4.84688 4.86667 C
atom 0.02757 -4.31051 1.97246 N
atom 1.85254 -5.89935 5.29752 N
atom 2.73163 0.80653 4.01320 C
atom 2.16553 1.72690 3.10989 C
atom 1.69904 2.49891 2.37039 N
atom 3.85667 -0.25879 5.96650 N
atom 3.49721 1.27699 5.49702 S
atom 1.80242 -1.48652 8.42646 S
atom 1.56472 -3.57114 10.28291 C
atom 0.59113 -1.11724 10.95873 C
atom 0.25619 -2.83171 11.21229 S
atom 1.24117 -0.57733 9.81373 C
atom 2.17636 -3.04275 9.17801 C
atom 3.19491 -3.75275 8.49249 C
atom 1.93666 -4.84688 10.78092 C
atom 4.02130 -4.31051 7.88671 N
atom 2.19633 -5.89935 11.21177 N
atom 1.31723 0.80653 9.92745 C
atom 1.88334 1.72690 9.02414 C
atom 2.34983 2.49891 8.28464 N
atom 0.19219 -0.25879 11.88075 N
atom 0.55165 1.27699 11.41127 S
atom 6.29530 -9.56160 2.51221 S
atom 6.53301 -7.47698 4.36866 C
atom 7.50660 -9.93087 5.04448 C
atom 7.84153 -8.21641 5.29803 S
atom 6.85656 -10.47079 3.89948 C
atom 5.92136 -8.00537 3.26376 C
atom 4.90282 -7.29537 2.57824 C
atom 6.16106 -6.20124 4.86667 C
atom 4.07643 -6.73761 1.97246 N
atom 5.90140 -5.14877 5.29752 N
atom 6.78049 -11.85464 4.01320 C
atom 6.21439 -12.77502 3.10989 C
atom 5.74790 -13.54703 2.37039 N
atom 7.90553 -10.78933 5.96650 N
atom 7.54608 -12.32511 5.49702 S
atom 13.94901 -9.56160 8.42646 S
atom 13.71131 -7.47698 10.28291 C
atom 12.73771 -9.93087 10.95873 C
atom 12.40278 -8.21641 11.21229 S
atom 13.38776 -10.47079 9.81373 C
atom 14.32295 -8.00537 9.17801 C
atom 15.34150 -7.29537 8.49249 C
atom 14.08325 -6.20124 10.78092 C
atom 16.16788 -6.73761 7.88671 N
atom 14.34292 -5.14877 11.21177 N
atom 13.46382 -11.85464 9.92745 C
atom 14.02992 -12.77502 9.02414 C
atom 14.49642 -13.54703 8.28464 N
atom 12.33878 -10.78933 11.88075 N
atom 12.69824 -12.32511 11.41127 S
atom 10.34416 -1.48652 2.51221 S
atom 10.58187 -3.57114 4.36866 C
atom 11.55546 -1.11724 5.04448 C
atom 11.89039 -2.83171 5.29803 S
atom 10.90542 -0.57733 3.89948 C
atom 9.97022 -3.04275 3.26376 C
atom 8.95168 -3.75275 2.57824 C
atom 10.20992 -4.84688 4.86667 C
atom 8.12529 -4.31051 1.97246 N
atom 9.95026 -5.89935 5.29752 N
atom 10.82936 0.80653 4.01320 C
atom 10.26325 1.72690 3.10989 C
atom 9.79676 2.49891 2.37039 N
atom 11.95440 -0.25879 5.96650 N
atom 11.59494 1.27699 5.49702 S
atom 9.90015 -1.48652 8.42646 S
atom 9.66244 -3.57114 10.28291 C
atom 8.68885 -1.11724 10.95873 C
atom 8.35392 -2.83171 11.21229 S
atom 9.33889 -0.57733 9.81373 C
atom 10.27409 -3.04275 9.17801 C
atom 11.29263 -3.75275 8.49249 C
atom 10.03439 -4.84688 10.78092 C
atom 12.11902 -4.31051 7.88671 N
atom 10.29405 -5.89935 11.21177 N
atom 9.41496 0.80653 9.92745 C
atom 9.98106 1.72690 9.02414 C
atom 10.44755 2.49891 8.28464 N
atom 8.28992 -0.25879 11.88075 N
atom 8.64937 1.27699 11.41127 S
atom 14.39303 -9.56160 2.51221 S
atom 14.63073 -7.47698 4.36866 C
atom 15.60432 -9.93087 5.04448 C
atom 15.93926 -8.21641 5.29803 S
atom 14.95428 -10.47079 3.89948 C
atom 14.01909 -8.00537 3.26376 C
atom 13.00054 -7.29537 2.57824 C
atom 14.25879 -6.20124 4.86667 C
atom 12.17415 -6.73761 1.97246 N
atom 13.99912 -5.14877 5.29752 N
atom 14.87822 -11.85464 4.01320 C
atom 14.31211 -12.77502 3.10989 C
atom 13.84562 -13.54703 2.37039 N
atom 16.00326 -10.78933 5.96650 N
atom 15.64380 -12.32511 5.49702 S
atom -2.24644 1.48652 8.42646 S
atom -2.48414 3.57114 10.28291 C
atom -3.45774 1.11724 10.95873 C
atom -3.79267 2.83171 11.21229 S
atom -2.80770 0.57733 9.81373 C
atom -1.87250 3.04275 9.17801 C
atom -0.85395 3.75275 8.49249 C
atom -2.11220 4.84688 10.78092 C
atom -0.02757 4.31051 7.88671 N
atom -1.85254 5.89935 11.21177 N
atom -2.73163 -0.80653 9.92745 C
atom -2.16553 -1.72690 9.02414 C
atom -1.69904 -2.49891 8.28464 N
atom -3.85667 0.25879 11.88075 N
atom -3.49721 -1.27699 11.41127 S
atom -5.85129 9.56160 2.51221 S
atom -5.61358 7.47698 4.36866 C
atom -4.63999 9.93087 5.04448 C
atom -4.30506 8.21641 5.29803 S
atom -5.29003 10.47079 3.89948 C
atom -6.22523 8.00537 3.26376 C
atom -7.24377 7.29537 2.57824 C
atom -5.98553 6.20124 4.86667 C
atom -8.07016 6.73761 1.97246 N
atom -6.24519 5.14877 5.29752 N
atom -5.36609 11.85464 4.01320 C
atom -5.93220 12.77502 3.10989 C
atom -6.39869 13.54703 2.37039 N
atom -4.24105 10.78933 5.96650 N
atom -4.60051 12.32511 5.49702 S
atom -6.29530 9.56160 8.42646 S
atom -6.53301 7.47698 10.28291 C
atom -7.50660 9.93087 10.95873 C
atom -7.84153 8.21641 11.21229 S
atom -6.85656 10.47079 9.81373 C
atom -5.92136 8.00537 9.17801 C
atom -4.90282 7.29537 8.49249 C
atom -6.16106 6.20124 10.78092 C
atom -4.07643 6.73761 7.88671 N
atom -5.90140 5.14877 11.21177 N
atom -6.78049 11.85464 9.92745 C
atom -6.21439 12.77502 9.02414 C
atom -5.74790 13.54703 8.28464 N
atom -7.90553 10.78933 11.88075 N
atom -7.54608 12.32511 11.41127 S
atom -1.80242 1.48652 2.51221 S
atom -1.56472 3.57114 4.36866 C
atom -0.59113 1.11724 5.04448 C
atom -0.25619 2.83171 5.29803 S
atom -1.24117 0.57733 3.89948 C
atom -2.17636 3.04275 3.26376 C
atom -3.19491 3.75275 2.57824 C
atom -1.93666 4.84688 4.86667 C
atom -4.02130 4.31051 1.97246 N
atom -2.19633 5.89935 5.29752 N
atom -1.31723 -0.80653 4.01320 C
atom -1.88334 -1.72690 3.10989 C
atom -2.34983 -2.49891 2.37039 N
atom -0.19219 0.25879 5.96650 N
atom -0.55165 -1.27699 5.49702 S
atom 13.94901 1.48652 8.42646 S
atom 13.71131 3.57114 10.28291 C
atom 12.73771 1.11724 10.95873 C
atom 12.40278 2.83171 11.21229 S
atom 13.38776 0.57733 9.81373 C
atom 14.32295 3.04275 9.17801 C
atom 15.34150 3.75275 8.49249 C
atom 14.08325 4.84688 10.78092 C
atom 16.16788 4.31051 7.88671 N
atom 14.34292 5.89935 11.21177 N
atom 13.46382 -0.80653 9.92745 C
atom 14.02992 -1.72690 9.02414 C
atom 14.49642 -2.49891 8.28464 N
atom 12.33878 0.25879 11.88075 N
atom 12.69824 -1.27699 11.41127 S
atom 10.34416 9.56160 2.51221 S
atom 10.58187 7.47698 4.36866 C
atom 11.55546 9.93087 5.04448 C
atom 11.89039 8.21641 5.29803 S
atom 10.90542 10.47079 3.89948 C
atom 9.97022 8.00537 3.26376 C
atom 8.95168 7.29537 2.57824 C
atom 10.20992 6.20124 4.86667 C
atom 8.12529 6.73761 1.97246 N
atom 9.95026 5.14877 5.29752 N
atom 10.82936 11.85464 4.01320 C
atom 10.26325 12.77502 3.10989 C
atom 9.79676 13.54703 2.37039 N
atom 11.95440 10.78933 5.96650 N
atom 11.59494 12.32511 5.49702 S
atom 9.90015 9.56160 8.42646 S
atom 9.66244 7.47698 10.28291 C
atom 8.68885 9.93087 10.95873 C
atom 8.35392 8.21641 11.21229 S
atom 9.33889 10.47079 9.81373 C
atom 10.27409 8.00537 9.17801 C
atom 11.29263 7.29537 8.49249 C
atom 10.03439 6.20124 10.78092 C
atom 12.11902 6.73761 7.88671 N
atom 10.29405 5.14877 11.21177 N
atom 9.41496 11.85464 9.92745 C
atom 9.98106 12.77502 9.02414 C
atom 10.44755 13.54703 8.28464 N
atom 8.28992 10.78933 11.88075 N
atom 8.64937 12.32511 11.41127 S
atom 14.39303 1.48652 2.51221 S
atom 14.63073 3.57114 4.36866 C
atom 15.60432 1.11724 5.04448 C
atom 15.93926 2.83171 5.29803 S
atom 14.95428 0.57733 3.89948 C
atom 14.01909 3.04275 3.26376 C
atom 13.00054 3.75275 2.57824 C
atom 14.25879 4.84688 4.86667 C
atom 12.17415 4.31051 1.97246 N
atom 13.99912 5.89935 5.29752 N
atom 14.87822 -0.80653 4.01320 C
atom 14.31211 -1.72690 3.10989 C
atom 13.84562 -2.49891 2.37039 N
atom 16.00326 0.25879 5.96650 N
atom 15.64380 -1.27699 5.49702 S
atom -2.24644 12.53464 8.42646 S
atom -2.48414 14.61926 10.28291 C
atom -3.45774 12.16536 10.95873 C
atom -3.79267 13.87983 11.21229 S