lattice_vector 6.548507 0.0 0.0
lattice_vector 0.0 17.255463 0.0
lattice_vector -2.285359 0.0 2.873702
atom 3.29809 2.65924 -0.33784 O
atom 2.20202 1.84823 -0.57022 C
atom 2.43684 0.87230 -0.97546 H
atom 1.08738 2.53591 -0.20759 C
atom -0.38594 2.83495 0.02784 C
atom -0.87969 2.20857 0.78195 H
atom -1.01277 2.86000 -0.87290 H
atom 0.07557 4.25937 0.55217 C
atom -0.15410 4.45493 1.60763 H
atom -0.28314 5.10530 -0.04831 H
atom 1.50120 3.81195 0.26370 C
atom 2.85623 3.86526 0.17481 C
atom 3.63884 4.58012 0.39463 H
atom 2.15541 14.59622 1.09901 O
atom 1.05934 15.40724 0.86663 C
atom 1.29416 16.38317 0.46139 H
atom -0.05530 14.71955 1.22926 C
atom -1.52862 14.42051 1.46469 C
atom -2.02237 15.04689 2.21881 H
atom -2.15545 14.39547 0.56395 H
atom -1.06711 12.99609 1.98902 C
atom -1.29678 12.80054 3.04449 H
atom -1.42582 12.15016 1.38854 H
atom 0.35852 13.44352 1.70055 C
atom 1.71355 13.39020 1.61166 C
atom 2.49616 12.67534 1.83148 H
