title geometry
lattice_vector 6.548507 0.000000 0.000000
lattice_vector 0.000000 17.255463 0.000000
lattice_vector -2.285359 0.000000 2.873702
-86.293686 -92.790177 31.773574 1.537797 3.111670 -0.017341 /home/trose/genarris_mpi4py/merged_4_17_2019/tests/full_diverse_workflow/harris_single_molecule_prep_aims_dir/geometry
89.787305 -43.804936 -156.046257 0.395118 14.143789 1.419510 /home/trose/genarris_mpi4py/merged_4_17_2019/tests/full_diverse_workflow/harris_single_molecule_prep_aims_dir/geometry
