lattice_vector 4.990374 0.0 0.0
lattice_vector 0.0 11.979333 0.0
lattice_vector 0.041511 0.0 5.608358
atom 3.63679 2.69501 -1.16864 O
atom 3.16057 2.30929 0.07134 C
atom 2.18992 1.83032 0.05626 H
atom 4.08767 2.65564 1.00266 C
atom 4.74217 2.81712 2.36688 C
atom 5.00032 1.88167 2.87983 H
atom 4.21031 3.46900 3.07189 H
atom 5.95151 3.50994 1.60898 C
atom 6.90700 2.97520 1.68691 H
atom 6.11473 4.56220 1.87531 H
atom 5.17212 3.27522 0.32317 C
atom 4.87480 3.28862 -1.00283 C
atom 5.34162 3.63026 -1.91780 H
atom 3.63679 9.28433 -1.16864 O
atom 3.16057 9.67004 0.07134 C
atom 2.18992 10.14902 0.05626 H
atom 4.08767 9.32370 1.00266 C
atom 4.74217 9.16222 2.36688 C
atom 5.00032 10.09766 2.87983 H
atom 4.21031 8.51034 3.07189 H
atom 5.95151 8.46940 1.60898 C
atom 6.90700 9.00414 1.68691 H
atom 6.11473 7.41713 1.87531 H
atom 5.17212 8.70412 0.32317 C
atom 4.87480 8.69071 -1.00283 C
atom 5.34162 8.34908 -1.91780 H
