title geometry
lattice_vector 4.990374 0.000000 0.000000
lattice_vector 0.000000 11.979333 0.000000
lattice_vector 0.041511 0.000000 5.608358
-128.040815 -96.132623 128.234639 4.508707 2.933388 0.440382 /home/trose/genarris_mpi4py/merged_4_17_2019/tests/full_diverse_workflow/harris_single_molecule_prep_aims_dir/geometry
177.476545 -101.306568 116.904330 4.508707 9.045942 0.440382 /home/trose/genarris_mpi4py/merged_4_17_2019/tests/full_diverse_workflow/harris_single_molecule_prep_aims_dir/geometry
