lattice_vector 9.495811 0.0 0.0
lattice_vector 0.0 8.792534 0.0
lattice_vector 4.858284 0.0 3.124204
atom 6.56689 2.42357 2.22282 O
atom 6.85127 1.16001 1.73736 C
atom 6.64313 0.35129 2.42616 H
atom 7.33387 1.29514 0.47416 C
atom 7.89564 0.90054 -0.88386 C
atom 7.22694 0.30074 -1.51467 H
atom 8.88362 0.42260 -0.86570 H
atom 7.91626 2.44885 -1.22910 C
atom 7.26134 2.74115 -2.06015 H
atom 8.91674 2.86380 -1.40715 H
atom 7.35093 2.68270 0.16430 C
atom 6.87815 3.35339 1.24758 C
atom 6.69237 4.38310 1.52506 H
atom 8.99603 6.36897 3.78492 O
atom 9.28041 7.63252 3.29947 C
atom 9.07227 8.44124 3.98826 H
atom 9.76301 7.49739 2.03627 C
atom 10.32478 7.89200 0.67824 C
atom 9.65608 8.49179 0.04743 H
atom 11.31276 8.36993 0.69640 H
atom 10.34540 6.34368 0.33300 C
atom 9.69049 6.05138 -0.49805 H
atom 11.34588 5.92873 0.15495 H
atom 9.78007 6.10983 1.72640 C
atom 9.30729 5.43914 2.80969 C
atom 9.12151 4.40943 3.08716 H
