lattice_vector 7.251819 0.0 0.0
lattice_vector 0.0 13.279518 0.0
lattice_vector -2.585021 0.0 2.63879
atom 3.16834 5.66524 0.30483 O
atom 2.25435 5.12473 -0.58150 C
atom 2.07237 5.72111 -1.46638 H
atom 1.82213 3.94263 -0.06899 C
atom 1.04852 2.63669 0.03856 C
atom 1.27999 1.88681 -0.72887 H
atom -0.04192 2.73823 0.11271 H
atom 1.78762 2.41296 1.42441 C
atom 2.44321 1.53309 1.45657 H
atom 1.12308 2.38840 2.29769 H
atom 2.48569 3.74149 1.17232 C
atom 3.30333 4.80681 1.38066 C
atom 4.00067 5.13588 2.14043 H
atom 3.16834 7.61428 0.30483 O
atom 2.25435 8.15478 -0.58150 C
atom 2.07237 7.55841 -1.46638 H
atom 1.82213 9.33689 -0.06899 C
atom 1.04852 10.64283 0.03856 C
atom 1.27999 11.39270 -0.72887 H
atom -0.04192 10.54129 0.11271 H
atom 1.78762 10.86656 1.42441 C
atom 2.44321 11.74643 1.45657 H
atom 1.12308 10.89112 2.29769 H
atom 2.48569 9.53803 1.17232 C
atom 3.30333 8.47271 1.38066 C
atom 4.00067 8.14363 2.14043 H
