title geometry
lattice_vector 7.251819 0.000000 0.000000
lattice_vector 0.000000 13.279518 0.000000
lattice_vector -2.585021 0.000000 2.638790
74.505705 -10.862270 -83.788100 2.276498 4.064159 0.522070 /home/trose/genarris_mpi4py/merged_4_17_2019/tests/full_diverse_workflow/harris_single_molecule_prep_aims_dir/geometry
-134.364608 -53.910417 16.119236 2.276498 9.215356 0.522070 /home/trose/genarris_mpi4py/merged_4_17_2019/tests/full_diverse_workflow/harris_single_molecule_prep_aims_dir/geometry
