lattice_vector 5.678144 0.0 0.0
lattice_vector 0.0 14.443629 0.0
lattice_vector 4.742121 0.0 3.296154
atom 3.82654 9.87766 2.04934 O
atom 4.44616 8.97503 2.89459 C
atom 3.95484 8.01350 2.97126 H
atom 5.54821 9.57642 3.41482 C
atom 6.81300 9.75858 4.24104 C
atom 7.65409 9.10947 3.96524 H
atom 6.67697 9.71374 5.32932 H
atom 6.88844 11.22646 3.64394 C
atom 7.77389 11.42415 3.02596 H
atom 6.79301 12.02769 4.38809 H
atom 5.61656 10.89145 2.87848 C
atom 4.55417 11.05371 2.04670 C
atom 4.15421 11.83461 1.41263 H
atom 3.82654 4.56597 2.04934 O
atom 4.44616 5.46860 2.89459 C
atom 3.95484 6.43013 2.97126 H
atom 5.54821 4.86721 3.41482 C
atom 6.81300 4.68505 4.24104 C
atom 7.65409 5.33416 3.96524 H
atom 6.67697 4.72989 5.32932 H
atom 6.88844 3.21717 3.64394 C
atom 7.77389 3.01948 3.02596 H
atom 6.79301 2.41594 4.38809 H
atom 5.61656 3.55218 2.87848 C
atom 4.55417 3.38992 2.04670 C
atom 4.15421 2.60902 1.41263 H
