title geometry
lattice_vector 5.678144 0.000000 0.000000
lattice_vector 0.000000 14.443629 0.000000
lattice_vector 4.742121 0.000000 3.296154
-93.619343 -81.438270 169.947652 5.368407 10.190907 3.014004 /home/trose/genarris_mpi4py/merged_4_17_2019/tests/full_diverse_workflow/harris_single_molecule_prep_aims_dir/geometry
126.290437 -119.094751 73.517351 5.368407 4.252718 3.014004 /home/trose/genarris_mpi4py/merged_4_17_2019/tests/full_diverse_workflow/harris_single_molecule_prep_aims_dir/geometry
