lattice_vector 2.945184 0.0 0.0
lattice_vector 5.934918832785079e-16 9.692458 0.0
lattice_vector 5.934918832785079e-16 5.934918832785079e-16 9.692458
atom 1.43956 6.05745 0.69932 C
atom 1.43956 6.05745 -0.69932 C
atom 1.43956 4.84623 -1.39867 C
atom 1.43956 3.63501 -0.69932 C
atom 1.43956 3.63501 0.69932 C
atom 1.43956 4.84623 1.39867 C
atom 1.43956 7.00268 1.24496 H
atom 1.43956 7.00267 -1.24496 H
atom 1.43956 4.84623 -2.49008 H
atom 1.43956 2.68978 -1.24496 H
atom 1.43956 2.68978 1.24496 H
atom 1.43956 4.84623 2.49008 H
atom 1.43956 -0.69932 6.05745 C
atom 1.43956 0.69932 6.05745 C
atom 1.43956 1.39867 4.84623 C
atom 1.43956 0.69932 3.63501 C
atom 1.43956 -0.69932 3.63501 C
atom 1.43956 -1.39867 4.84623 C
atom 1.43956 -1.24496 7.00267 H
atom 1.43956 1.24496 7.00267 H
atom 1.43956 2.49008 4.84623 H
atom 1.43956 1.24496 2.68978 H
atom 1.43956 -1.24496 2.68978 H
atom 1.43956 -2.49008 4.84623 H
