lattice_vector 6.499553 0.0 0.0
lattice_vector 0.0 8.057531 0.0
lattice_vector -0.453453 0.0 5.21278
atom 4.03158 6.07533 2.96626 O
atom 2.99513 6.43648 2.12457 C
atom 3.30242 6.75797 1.13765 H
atom 1.82890 6.27870 2.80418 C
atom 0.33301 6.28421 3.08313 C
atom -0.26204 5.58755 2.47864 H
atom -0.14857 7.27028 3.05844 H
atom 0.68945 5.75854 4.53692 C
atom 0.29806 4.76009 4.77122 H
atom 0.41569 6.44322 5.35001 H
atom 2.14835 5.80618 4.10660 C
atom 3.50015 5.68948 4.18332 C
atom 4.23010 5.38436 4.92216 H
atom 4.03158 1.98220 2.96626 O
atom 2.99513 1.62105 2.12457 C
atom 3.30242 1.29956 1.13765 H
atom 1.82890 1.77883 2.80418 C
atom 0.33301 1.77332 3.08313 C
atom -0.26204 2.46998 2.47864 H
atom -0.14857 0.78726 3.05844 H
atom 0.68945 2.29899 4.53692 C
atom 0.29806 3.29745 4.77122 H
atom 0.41569 1.61431 5.35001 H
atom 2.14835 2.25135 4.10660 C
atom 3.50015 2.36805 4.18332 C
atom 4.23010 2.67317 4.92216 H
