title geometry
lattice_vector 5.266059 0.000000 0.000000
lattice_vector 0.000000 16.981060 0.000000
lattice_vector 1.135435 0.000000 2.664703
-35.954804 -76.197002 -142.832697 5.758142 11.637282 2.031364 /home/trose/genarris_mpi4py/merged_4_17_2019/tests/full_diverse_workflow/harris_single_molecule_prep_aims_dir/geometry
28.060452 -124.702897 18.407134 5.758142 5.343775 2.031364 /home/trose/genarris_mpi4py/merged_4_17_2019/tests/full_diverse_workflow/harris_single_molecule_prep_aims_dir/geometry
