lattice_vector 13.647192 0.0 0.0
lattice_vector 0.0 5.36546 0.0
lattice_vector -0.891474 0.0 3.367125
atom 6.05925 2.23536 0.81087 O
atom 5.29851 3.39036 0.83074 C
atom 5.81886 4.27096 1.18512 H
atom 4.05480 3.08090 0.37881 C
atom 2.60021 3.27061 -0.02582 C
atom 2.43229 3.93147 -0.88599 H
atom 1.91965 3.56694 0.78282 H
atom 2.58370 1.72198 -0.36989 C
atom 2.40406 1.49014 -1.42771 H
atom 1.89545 1.12535 0.24262 H
atom 4.04052 1.69328 0.06908 C
atom 5.27603 1.19690 0.34108 C
atom 5.77701 0.23898 0.28439 H
atom 6.69647 2.23536 2.55625 O
atom 7.45720 3.39036 2.53638 C
atom 6.93686 4.27096 2.18201 H
atom 8.70092 3.08090 2.98831 C
atom 10.15550 3.27061 3.39294 C
atom 10.32343 3.93147 4.25312 H
atom 10.83606 3.56694 2.58431 H
atom 10.17202 1.72198 3.73702 C
atom 10.35166 1.49014 4.79484 H
atom 10.86027 1.12535 3.12450 H
atom 8.71520 1.69328 3.29805 C
atom 7.47969 1.19690 3.02604 C
atom 6.97871 0.23898 3.08273 H
