title geometry
lattice_vector 13.647192 0.000000 0.000000
lattice_vector 0.000000 5.365460 0.000000
lattice_vector -0.891474 0.000000 3.367125
65.415066 -83.203314 -140.257751 4.291921 2.368487 0.296201 /home/trose/genarris_mpi4py/merged_4_17_2019/tests/full_diverse_workflow/harris_single_molecule_prep_aims_dir/geometry
114.584799 -96.796501 39.741887 8.463799 2.368487 3.070916 /home/trose/genarris_mpi4py/merged_4_17_2019/tests/full_diverse_workflow/harris_single_molecule_prep_aims_dir/geometry
