title geometry
lattice_vector 20.013157 0.000000 0.000000
lattice_vector 0.000000 3.210757 0.000000
lattice_vector 5.679368 0.000000 3.307615
-63.276491 -58.012289 -45.105790 18.496801 2.781992 1.535847 /home/trose/genarris_mpi4py/merged_4_17_2019/tests/full_diverse_workflow/harris_single_molecule_prep_aims_dir/geometry
-116.723510 -121.987954 134.894295 7.195725 2.781992 1.771759 /home/trose/genarris_mpi4py/merged_4_17_2019/tests/full_diverse_workflow/harris_single_molecule_prep_aims_dir/geometry
