lattice_vector 3.889271 0.0 0.0
lattice_vector 0.0 5.886809 0.0
lattice_vector 11.107289 0.0 9.045246
atom 7.38994 3.00386 4.83129 O
atom 7.03824 2.79210 3.51046 C
atom 7.20648 3.63668 2.85458 H
atom 6.55865 1.52516 3.40237 C
atom 5.97202 0.27601 2.76126 C
atom 6.60618 -0.21009 2.00867 H
atom 4.96053 0.38677 2.34958 H
atom 6.03090 -0.38638 4.20163 C
atom 6.69707 -1.25544 4.27876 H
atom 5.05277 -0.65480 4.62122 H
atom 6.61283 0.93109 4.69302 C
atom 7.12398 1.85307 5.55065 C
atom 7.36424 1.90979 6.60463 H
atom 12.94359 2.88295 9.35391 O
atom 12.59189 3.09471 8.03308 C
atom 12.76013 2.25013 7.37720 H
atom 12.11230 4.36165 7.92499 C
atom 11.52567 5.61080 7.28388 C
atom 12.15982 6.09690 6.53129 H
atom 10.51418 5.50004 6.87220 H
atom 11.58455 6.27319 8.72426 C
atom 12.25072 7.14225 8.80139 H
atom 10.60642 6.54161 9.14385 H
atom 12.16648 4.95572 9.21564 C
atom 12.67762 4.03374 10.07328 C
atom 12.91789 3.97702 11.12726 H
