lattice_vector 4.545454 0.0 0.0
lattice_vector 0.0 13.249093 0.0
lattice_vector -1.577378 0.0 4.489145
atom 3.64842 5.26483 2.00716 O
atom 2.81820 4.76594 1.01976 C
atom 2.69464 5.41270 0.16056 H
atom 2.37072 3.54814 1.42418 C
atom 1.61740 2.22642 1.39096 C
atom 1.92367 1.52872 0.60087 H
atom 0.52269 2.30660 1.38367 H
atom 2.24924 1.92926 2.81552 C
atom 2.91778 1.05917 2.84711 H
atom 1.51853 1.84098 3.62983 H
atom 2.93822 3.28124 2.70025 C
atom 3.71535 4.34408 3.03686 C
atom 4.34385 4.63644 3.86832 H
atom 3.64842 7.98426 2.00716 O
atom 2.81820 8.48316 1.01976 C
atom 2.69464 7.83639 0.16056 H
atom 2.37072 9.70096 1.42418 C
atom 1.61740 11.02267 1.39096 C
atom 1.92367 11.72037 0.60087 H
atom 0.52269 10.94250 1.38367 H
atom 2.24924 11.31983 2.81552 C
atom 2.91778 12.18993 2.84711 H
atom 1.51853 11.40811 3.62983 H
atom 2.93822 9.96785 2.70025 C
atom 3.71535 8.90501 3.03686 C
atom 4.34385 8.61265 3.86832 H
