lattice_vector 7.432508 0.0 0.0
lattice_vector 0.0 4.665217 0.0
lattice_vector -6.966375 0.0 8.415149
atom 3.34550 1.35277 0.54871 O
atom 2.16995 0.62444 0.57565 C
atom 1.85048 0.24188 -0.38528 H
atom 1.72627 0.59208 1.85976 C
atom 0.83522 0.26516 3.04917 C
atom 0.75767 -0.80024 3.30163 H
atom -0.17537 0.69216 3.01391 H
atom 1.86706 1.08052 3.93652 C
atom 2.38250 0.48578 4.70177 H
atom 1.45159 1.97919 4.41044 H
atom 2.65187 1.32159 2.65520 C
atom 3.63314 1.77756 1.83298 C
atom 4.54007 2.36112 1.92662 H
atom -2.87936 3.68538 7.86644 O
atom -1.70381 2.95705 7.83950 C
atom -1.38435 2.57449 8.80043 H
atom -1.26014 2.92469 6.55539 C
atom -0.36909 2.59777 5.36598 C
atom -0.29153 1.53237 5.11352 H
atom 0.64150 3.02477 5.40124 H
atom -1.40093 3.41312 4.47863 C
atom -1.91637 2.81838 3.71338 H
atom -0.98545 4.31180 4.00471 H
atom -2.18573 3.65420 5.75995 C
atom -3.16701 4.11017 6.58217 C
atom -4.07394 4.69373 6.48853 H
