title geometry
lattice_vector 4.843018 0.000000 0.000000
lattice_vector 0.000000 13.250547 0.000000
lattice_vector -4.982333 0.000000 3.467274
76.359822 -77.244284 167.548129 -3.563907 3.553716 2.510820 /home/trose/genarris_mpi4py/merged_4_17_2019/tests/full_diverse_workflow/harris_single_molecule_prep_aims_dir/geometry
-43.390075 -114.292692 73.192709 -3.563907 9.696828 2.510820 /home/trose/genarris_mpi4py/merged_4_17_2019/tests/full_diverse_workflow/harris_single_molecule_prep_aims_dir/geometry
