lattice_vector 8.1229 0.0 0.0
lattice_vector 0.0 13.239027 0.0
lattice_vector 3.649494 0.0 2.557453
atom 5.59361 12.05908 -0.46667 O
atom 4.71121 11.26779 -1.17966 C
atom 4.40625 11.67485 -2.13522 H
atom 4.46402 10.15040 -0.44673 C
atom 3.87316 8.80086 -0.06575 C
atom 4.15842 7.96146 -0.71295 H
atom 2.78432 8.78376 0.07209 H
atom 4.70826 8.91148 1.27859 C
atom 5.47317 8.13474 1.40736 H
atom 4.10031 8.96098 2.19116 H
atom 5.21365 10.24894 0.75742 C
atom 5.89625 11.42357 0.72374 C
atom 6.58476 11.96043 1.36371 H
atom 5.59361 1.17994 -0.46667 O
atom 4.71121 1.97124 -1.17966 C
atom 4.40625 1.56417 -2.13522 H
atom 4.46402 3.08862 -0.44673 C
atom 3.87316 4.43817 -0.06575 C
atom 4.15842 5.27757 -0.71295 H
atom 2.78432 4.45527 0.07209 H
atom 4.70826 4.32755 1.27859 C
atom 5.47317 5.10429 1.40736 H
atom 4.10031 4.27805 2.19116 H
atom 5.21365 2.99009 0.75742 C
atom 5.89625 1.81545 0.72374 C
atom 6.58476 1.27860 1.36371 H
