title geometry
lattice_vector 8.122900 0.000000 0.000000
lattice_vector 0.000000 13.239027 0.000000
lattice_vector 3.649494 0.000000 2.557453
0.000000 0.000000 0.000000 4.929827 10.426147 0.080111 /home/trose/genarris_mpi4py/merged_4_17_2019/tests/full_diverse_workflow/harris_single_molecule_prep_aims_dir/geometry
-149.326086 -50.738280 28.796603 4.929827 2.812876 0.080111 /home/trose/genarris_mpi4py/merged_4_17_2019/tests/full_diverse_workflow/harris_single_molecule_prep_aims_dir/geometry
