title geometry
lattice_vector 7.138604 0.000000 0.000000
lattice_vector 0.000000 7.705674 0.000000
lattice_vector -4.428663 0.000000 4.572686
59.182755 -105.783328 50.422656 0.548229 6.771192 3.336922 /home/trose/genarris_mpi4py/merged_4_17_2019/tests/full_diverse_workflow/harris_single_molecule_prep_aims_dir/geometry
-40.275650 -60.213581 -175.798050 2.762560 0.934479 1.050579 /home/trose/genarris_mpi4py/merged_4_17_2019/tests/full_diverse_workflow/harris_single_molecule_prep_aims_dir/geometry
