lattice_vector 25.323704 0.0 0.0
lattice_vector 0.0 3.309196 0.0
lattice_vector 5.135243 0.0 3.158078
atom 11.67067 1.93649 2.17324 O
atom 11.19860 2.22562 0.90569 C
atom 11.86978 1.95914 0.09927 H
atom 9.96842 2.78847 1.03486 C
atom 8.64632 3.42579 0.63310 C
atom 7.97269 2.78598 0.04856 H
atom 8.72389 4.40113 0.13556 H
atom 8.30944 3.49831 2.18170 C
atom 7.44050 2.90227 2.48938 H
atom 8.19565 4.51590 2.57718 H
atom 9.66595 2.85207 2.42270 C
atom 10.72052 2.32607 3.09951 C
atom 10.99016 2.14367 4.13191 H
atom 18.78828 1.93649 0.98484 O
atom 19.26034 2.22562 2.25239 C
atom 18.58917 1.95914 3.05880 H
atom 20.49053 2.78847 2.12322 C
atom 21.81263 3.42579 2.52497 C
atom 22.48626 2.78598 3.10952 H
atom 21.73506 4.40113 3.02252 H
atom 22.14951 3.49831 0.97638 C
atom 23.01845 2.90227 0.66870 H
atom 22.26329 4.51590 0.58090 H
atom 20.79300 2.85207 0.73538 C
atom 19.73843 2.32607 0.05857 C
atom 19.46879 2.14367 -0.97383 H
