title geometry
lattice_vector 25.323704 0.000000 0.000000
lattice_vector 0.000000 3.309196 0.000000
lattice_vector 5.135243 0.000000 3.158078
-63.392563 -37.161632 -30.672070 10.042919 2.713697 1.782808 /home/trose/genarris_mpi4py/merged_4_17_2019/tests/full_diverse_workflow/harris_single_molecule_prep_aims_dir/geometry
-116.607309 -142.838632 149.328134 20.416029 2.713697 1.375261 /home/trose/genarris_mpi4py/merged_4_17_2019/tests/full_diverse_workflow/harris_single_molecule_prep_aims_dir/geometry
