title geometry
lattice_vector 15.693729 0.000000 0.000000
lattice_vector 0.000000 3.889223 0.000000
lattice_vector -2.158721 0.000000 4.425895
-140.269960 -22.941473 124.218220 10.342243 1.554332 1.391259 /home/trose/genarris_mpi4py/merged_4_17_2019/tests/full_diverse_workflow/harris_single_molecule_prep_aims_dir/geometry
-39.729553 -157.058394 -55.781294 3.192767 1.554332 3.034627 /home/trose/genarris_mpi4py/merged_4_17_2019/tests/full_diverse_workflow/harris_single_molecule_prep_aims_dir/geometry
