title geometry
lattice_vector 7.787012 0.000000 0.000000
lattice_vector 0.000000 13.420507 0.000000
lattice_vector 4.269013 0.000000 2.616723
6.064013 -103.103582 -173.173030 7.677875 3.640402 0.825801 /home/trose/genarris_mpi4py/merged_4_17_2019/tests/full_diverse_workflow/harris_single_molecule_prep_aims_dir/geometry
24.253644 -146.314192 69.162072 9.812382 9.780102 2.134162 /home/trose/genarris_mpi4py/merged_4_17_2019/tests/full_diverse_workflow/harris_single_molecule_prep_aims_dir/geometry
